 DBCSR| CPU Multiplication driver                                           BLAS (U)
 DBCSR| Multrec recursion limit                                              512 (U)
 DBCSR| Multiplication stack size                                           1000 (D)
 DBCSR| Maximum elements for images                                    UNLIMITED (U)
 DBCSR| Multiplicative factor virtual images                                   1 (U)
 DBCSR| Use multiplication densification                                       T (D)
 DBCSR| Multiplication size stacks                                             3 (U)
 DBCSR| Use memory pool for CPU allocation                                     F (U)
 DBCSR| Number of 3D layers                                               SINGLE (U)
 DBCSR| Use MPI memory allocation                                              F (U)
 DBCSR| Use RMA algorithm                                                      F (U)
 DBCSR| Use Communication thread                                               T (U)
 DBCSR| Communication thread load                                             87 (D)
 DBCSR| MPI: My process id                                                     0
 DBCSR| MPI: Number of processes                                               4
 DBCSR| OMP: Current number of threads                                         1
 DBCSR| OMP: Max number of threads                                             1
 DBCSR| Split modifier for TAS multiplication algorithm                  1.0E+00 (U)


  **** **** ******  **  PROGRAM STARTED AT               2025-02-10 12:01:14.768
 ***** ** ***  *** **   PROGRAM STARTED ON                          pc1022400703
 **    ****   ******    PROGRAM STARTED BY                              mas05075
 ***** **    ** ** **   PROGRAM PROCESS ID                                  9998
  **** **  *******  **  PROGRAM STARTED IN /home/mas05075/Science/RTBSE/test_2nd
                                           _harmonic/CO/2/e_x/Results_1e11

 CP2K| version string:                 CP2K version 2025.1 (Development Version)
 CP2K| source code revision number:                                  git:26096ef
 CP2K| cp2kflags: omp libint fftw3 libxc parallel scalapack max_contr=4         
 CP2K| is freely available from                            https://www.cp2k.org/
 CP2K| Program compiled at                          Fri 31 Jan 15:01:24 CET 2025
 CP2K| Program compiled on                                          pc1022400703
 CP2K| Program compiled for                                             personal
 CP2K| Data directory path                     /home/mas05075/Software/CP2K/data
 CP2K| Input file name                                                 rtbse.inp

 GLOBAL| Force Environment number                                              1
 GLOBAL| Basis set file name             BASIS_GTH_MOLOPT_AUG_for_excited_states
 GLOBAL| Potential file name                                      GTH_POTENTIALS
 GLOBAL| MM Potential file name                                     MM_POTENTIAL
 GLOBAL| Coordinate file name                                      __STD_INPUT__
 GLOBAL| Method name                                                        CP2K
 GLOBAL| Project name                                                         CO
 GLOBAL| Run type                                                 RT_PROPAGATION
 GLOBAL| FFT library                                                       FFTW3
 GLOBAL| Diagonalization library                                       ScaLAPACK
 GLOBAL| DGEMM library                                                      BLAS
 GLOBAL| Orthonormality check for eigenvectors                          DISABLED
 GLOBAL| Matrix multiplication library                                 ScaLAPACK
 GLOBAL| All-to-all communication in single precision                          F
 GLOBAL| FFTs using library dependent lengths                                  F
 GLOBAL| Grid backend                                                       AUTO
 GLOBAL| Global print level                                               MEDIUM
 GLOBAL| MPI I/O enabled                                                       T
 GLOBAL| Total number of message passing processes                             4
 GLOBAL| Number of threads for this process                                    1
 GLOBAL| This output is from process                                           0
 GLOBAL| OpenMP stack size per thread (OMP_STACKSIZE)                    default
 GLOBAL| CPU model name                   AMD Ryzen 7 7730U with Radeon Graphics

 MEMORY| system memory details [Kb]
 MEMORY|                        rank 0           min           max       average
 MEMORY| MemTotal             39956460      39956460      39956460      39956460
 MEMORY| MemFree              34422420      34422420      34422420      34422420
 MEMORY| Buffers                144264        144264        144264        144264
 MEMORY| Cached                3218744       3218744       3218744       3218744
 MEMORY| Slab                   254152        254152        254152        254152
 MEMORY| SReclaimable           133960        133960        133960        133960
 MEMORY| MemLikelyFree        37919388      37919388      37919388      37919388


 *** Fundamental physical constants (SI units) ***

 *** Literature: B. J. Mohr and B. N. Taylor,
 ***             CODATA recommended values of the fundamental physical
 ***             constants: 2006, Web Version 5.1
 ***             http://physics.nist.gov/constants

 Speed of light in vacuum [m/s]                             2.99792458000000E+08
 Magnetic constant or permeability of vacuum [N/A**2]       1.25663706143592E-06
 Electric constant or permittivity of vacuum [F/m]          8.85418781762039E-12
 Planck constant (h) [J*s]                                  6.62606896000000E-34
 Planck constant (h-bar) [J*s]                              1.05457162825177E-34
 Elementary charge [C]                                      1.60217648700000E-19
 Electron mass [kg]                                         9.10938215000000E-31
 Electron g factor [ ]                                     -2.00231930436220E+00
 Proton mass [kg]                                           1.67262163700000E-27
 Fine-structure constant                                    7.29735253760000E-03
 Rydberg constant [1/m]                                     1.09737315685270E+07
 Avogadro constant [1/mol]                                  6.02214179000000E+23
 Boltzmann constant [J/K]                                   1.38065040000000E-23
 Atomic mass unit [kg]                                      1.66053878200000E-27
 Bohr radius [m]                                            5.29177208590000E-11

 *** Conversion factors ***

 [u] -> [a.u.]                                              1.82288848426455E+03
 [Angstrom] -> [Bohr] = [a.u.]                              1.88972613288564E+00
 [a.u.] = [Bohr] -> [Angstrom]                              5.29177208590000E-01
 [a.u.] -> [s]                                              2.41888432650478E-17
 [a.u.] -> [fs]                                             2.41888432650478E-02
 [a.u.] -> [J]                                              4.35974393937059E-18
 [a.u.] -> [N]                                              8.23872205491840E-08
 [a.u.] -> [K]                                              3.15774647902944E+05
 [a.u.] -> [kJ/mol]                                         2.62549961709828E+03
 [a.u.] -> [kcal/mol]                                       6.27509468713739E+02
 [a.u.] -> [Pa]                                             2.94210107994716E+13
 [a.u.] -> [bar]                                            2.94210107994716E+08
 [a.u.] -> [atm]                                            2.90362800883016E+08
 [a.u.] -> [eV]                                             2.72113838565563E+01
 [a.u.] -> [Hz]                                             6.57968392072181E+15
 [a.u.] -> [1/cm] (wave numbers)                            2.19474631370540E+05
 [a.u./Bohr**2] -> [1/cm]                                   5.14048714338585E+03
 

 CELL_TOP| Volume [angstrom^3]:                                      1000.000000
 CELL_TOP| Vector a [angstrom    10.000     0.000     0.000   |a| =    10.000000
 CELL_TOP| Vector b [angstrom     0.000    10.000     0.000   |b| =    10.000000
 CELL_TOP| Vector c [angstrom     0.000     0.000    10.000   |c| =    10.000000
 CELL_TOP| Angle (b,c), alpha [degree]:                                90.000000
 CELL_TOP| Angle (a,c), beta  [degree]:                                90.000000
 CELL_TOP| Angle (a,b), gamma [degree]:                                90.000000
 CELL_TOP| Numerically orthorhombic:                                         YES
 CELL_TOP| Periodicity                                                      NONE

 GENERATE|  Preliminary Number of Bonds generated:                             0
 GENERATE|  Achieved consistency in connectivity generation.

 CELL| Volume [angstrom^3]:                                          1000.000000
 CELL| Vector a [angstrom]:      10.000     0.000     0.000   |a| =    10.000000
 CELL| Vector b [angstrom]:       0.000    10.000     0.000   |b| =    10.000000
 CELL| Vector c [angstrom]:       0.000     0.000    10.000   |c| =    10.000000
 CELL| Angle (b,c), alpha [degree]:                                    90.000000
 CELL| Angle (a,c), beta  [degree]:                                    90.000000
 CELL| Angle (a,b), gamma [degree]:                                    90.000000
 CELL| Numerically orthorhombic:                                             YES
 CELL| Periodicity                                                          NONE

 CELL_REF| Volume [angstrom^3]:                                      1000.000000
 CELL_REF| Vector a [angstrom    10.000     0.000     0.000   |a| =    10.000000
 CELL_REF| Vector b [angstrom     0.000    10.000     0.000   |b| =    10.000000
 CELL_REF| Vector c [angstrom     0.000     0.000    10.000   |c| =    10.000000
 CELL_REF| Angle (b,c), alpha [degree]:                                90.000000
 CELL_REF| Angle (a,c), beta  [degree]:                                90.000000
 CELL_REF| Angle (a,b), gamma [degree]:                                90.000000
 CELL_REF| Numerically orthorhombic:                                         YES
 CELL_REF| Periodicity                                                      NONE

 *******************************************************************************
 *******************************************************************************
 **                                                                           **
 **     #####                         ##              ##                      **
 **    ##   ##            ##          ##              ##                      **
 **   ##     ##                       ##            ######                    **
 **   ##     ##  ##   ##  ##   #####  ##  ##   ####   ##    #####    #####    **
 **   ##     ##  ##   ##  ##  ##      ## ##   ##      ##   ##   ##  ##   ##   **
 **   ##  ## ##  ##   ##  ##  ##      ####     ###    ##   ######   ######    **
 **    ##  ###   ##   ##  ##  ##      ## ##      ##   ##   ##       ##        **
 **     #######   #####   ##   #####  ##  ##  ####    ##    #####   ##        **
 **           ##                                                    ##        **
 **                                                                           **
 **                                                ... make the atoms dance   **
 **                                                                           **
 **            Copyright (C) by CP2K developers group (2000-2025)             **
 **                      J. Chem. Phys. 152, 194103 (2020)                    **
 **                                                                           **
 *******************************************************************************

 DFT| Spin restricted Kohn-Sham (RKS) calculation                            RKS
 DFT| Multiplicity                                                             1
 DFT| Number of spin states                                                    1
 DFT| Charge                                                                   0
 DFT| Self-interaction correction (SIC)                                       NO
 DFT| Cutoffs: density                                              1.000000E-10
 DFT|          gradient                                             1.000000E-10
 DFT|          tau                                                  1.000000E-10
 DFT|          cutoff_smoothing_range                               0.000000E+00
 DFT| XC density smoothing                                                  NONE
 DFT| XC derivatives                                                          PW

 FUNCTIONAL| PBE:
 FUNCTIONAL| J.P.Perdew, K.Burke, M.Ernzerhof, Phys. Rev. Letter, vol. 77, n 18,
 FUNCTIONAL|  pp. 3865-3868, (1996) {spin unpolarized}                          


 QS| Method:                                                                 GPW
 QS| Density plane wave grid type                        NON-SPHERICAL FULLSPACE
 QS| Number of grid levels:                                                    4
 QS| Density cutoff [a.u.]:                                                200.0
 QS| Multi grid cutoff [a.u.]: 1) grid level                               200.0
 QS|                           2) grid level                                66.7
 QS|                           3) grid level                                22.2
 QS|                           4) grid level                                 7.4
 QS| Grid level progression factor:                                          3.0
 QS| Relative density cutoff [a.u.]:                                        25.0
 QS| Interaction thresholds: eps_pgf_orb:                                1.0E-05
 QS|                         eps_filter_matrix:                          0.0E+00
 QS|                         eps_core_charge:                            1.0E-12
 QS|                         eps_rho_gspace:                             1.0E-10
 QS|                         eps_rho_rspace:                             1.0E-10
 QS|                         eps_gvg_rspace:                             1.0E-05
 QS|                         eps_ppl:                                    1.0E-02
 QS|                         eps_ppnl:                                   1.0E-07


 ATOMIC KIND INFORMATION

  1. Atomic kind: C                                     Number of atoms:       1

     Orbital Basis Set                                        aug-SZV-MOLOPT-GTH

       Number of orbital shell sets:                                           1
       Number of orbital shells:                                               5
       Number of primitive Cartesian functions:                                6
       Number of Cartesian basis functions:                                   14
       Number of spherical basis functions:                                   13
       Norm type:                                                              2

       Normalised Cartesian orbitals:

                        Set   Shell   Orbital            Exponent    Coefficient

                          1       1    2s                0.128212      -0.022789
                                                         0.170000       0.000000
                                                         0.348157      -0.219794
                                                         0.769911      -0.209686
                                                         2.113016       0.213043
                                                         5.605331       0.322515

                          1       2    3s                0.128212      -0.011218
                                                         0.170000       0.211516
                                                         0.348157      -0.017308
                                                         0.769911       0.000059
                                                         2.113016       0.000000
                                                         5.605331       0.000000

                          1       3    3px               0.128212      -0.027849
                                                         0.170000       0.000000
                                                         0.348157      -0.139743
                                                         0.769911      -0.374851
                                                         2.113016      -0.642521
                                                         5.605331      -0.703879
                          1       3    3py               0.128212      -0.027849
                                                         0.170000       0.000000
                                                         0.348157      -0.139743
                                                         0.769911      -0.374851
                                                         2.113016      -0.642521
                                                         5.605331      -0.703879
                          1       3    3pz               0.128212      -0.027849
                                                         0.170000       0.000000
                                                         0.348157      -0.139743
                                                         0.769911      -0.374851
                                                         2.113016      -0.642521
                                                         5.605331      -0.703879

                          1       4    4px               0.128212      -0.292809
                                                         0.170000       0.260881
                                                         0.348157       0.116498
                                                         0.769911      -0.184036
                                                         2.113016       0.000000
                                                         5.605331       0.000000
                          1       4    4py               0.128212      -0.292809
                                                         0.170000       0.260881
                                                         0.348157       0.116498
                                                         0.769911      -0.184036
                                                         2.113016       0.000000
                                                         5.605331       0.000000
                          1       4    4pz               0.128212      -0.292809
                                                         0.170000       0.260881
                                                         0.348157       0.116498
                                                         0.769911      -0.184036
                                                         2.113016       0.000000
                                                         5.605331       0.000000

                          1       5    4dx2              0.128212       0.038324
                                                         0.170000       0.009466
                                                         0.348157       0.001927
                                                         0.769911       0.071948
                                                         2.113016       0.000000
                                                         5.605331       0.000000
                          1       5    4dxy              0.128212       0.066380
                                                         0.170000       0.016396
                                                         0.348157       0.003338
                                                         0.769911       0.124617
                                                         2.113016       0.000000
                                                         5.605331       0.000000
                          1       5    4dxz              0.128212       0.066380
                                                         0.170000       0.016396
                                                         0.348157       0.003338
                                                         0.769911       0.124617
                                                         2.113016       0.000000
                                                         5.605331       0.000000
                          1       5    4dy2              0.128212       0.038324
                                                         0.170000       0.009466
                                                         0.348157       0.001927
                                                         0.769911       0.071948
                                                         2.113016       0.000000
                                                         5.605331       0.000000
                          1       5    4dyz              0.128212       0.066380
                                                         0.170000       0.016396
                                                         0.348157       0.003338
                                                         0.769911       0.124617
                                                         2.113016       0.000000
                                                         5.605331       0.000000
                          1       5    4dz2              0.128212       0.038324
                                                         0.170000       0.009466
                                                         0.348157       0.001927
                                                         0.769911       0.071948
                                                         2.113016       0.000000
                                                         5.605331       0.000000

     RI Auxiliary Basis Set             RI_aug-SZV-MOLOPT-GTH_N_RI_067_s_p_d_f_g

       Number of orbital shell sets:                                          19
       Number of orbital shells:                                              19
       Number of primitive Cartesian functions:                               19
       Number of Cartesian basis functions:                                   81
       Number of spherical basis functions:                                   67
       Norm type:                                                              2

       Normalised Cartesian orbitals:

                        Set   Shell   Orbital            Exponent    Coefficient

                          1       1    1s                0.250759       0.252553

                          2       1    2s                0.495527       0.420930

                          3       1    3s                1.034440       0.731037

                          4       1    4s                2.235594       1.303031

                          5       1    5s                4.650070       2.256860

                          6       1    6s                9.267188       3.785481

                          7       1    7px               0.251679       0.254096
                          7       1    7py               0.251679       0.254096
                          7       1    7pz               0.251679       0.254096

                          8       1    8px               0.674377       0.871102
                          8       1    8py               0.674377       0.871102
                          8       1    8pz               0.674377       0.871102

                          9       1    9px               1.686181       2.738862
                          9       1    9py               1.686181       2.738862
                          9       1    9pz               1.686181       2.738862

                         10       1   10px               3.960243       7.963288
                         10       1   10py               3.960243       7.963288
                         10       1   10pz               3.960243       7.963288

                         11       1   11px               9.275007      23.071876
                         11       1   11py               9.275007      23.071876
                         11       1   11pz               9.275007      23.071876

                         12       1   12dx2              0.308978       0.210758
                         12       1   12dxy              0.308978       0.365043
                         12       1   12dxz              0.308978       0.365043
                         12       1   12dy2              0.308978       0.210758
                         12       1   12dyz              0.308978       0.365043
                         12       1   12dz2              0.308978       0.210758

                         13       1   13dx2              0.831349       1.191325
                         13       1   13dxy              0.831349       2.063436
                         13       1   13dxz              0.831349       2.063436
                         13       1   13dy2              0.831349       1.191325
                         13       1   13dyz              0.831349       2.063436
                         13       1   13dz2              0.831349       1.191325

                         14       1   14dx2              1.708593       4.202687
                         14       1   14dxy              1.708593       7.279267
                         14       1   14dxz              1.708593       7.279267
                         14       1   14dy2              1.708593       4.202687
                         14       1   14dyz              1.708593       7.279267
                         14       1   14dz2              1.708593       4.202687

                         15       1   15dx2              4.058751      19.102762
                         15       1   15dxy              4.058751      33.086954
                         15       1   15dxz              4.058751      33.086954
                         15       1   15dy2              4.058751      19.102762
                         15       1   15dyz              4.058751      33.086954
                         15       1   15dz2              4.058751      19.102762

                         16       1   16dx2              9.335269      82.059989
                         16       1   16dxy              9.335269     142.132070
                         16       1   16dxz              9.335269     142.132070
                         16       1   16dy2              9.335269      82.059989
                         16       1   16dyz              9.335269     142.132070
                         16       1   16dz2              9.335269      82.059989

                         17       1   17fx3              0.357831       0.145790
                         17       1   17fx2y             0.357831       0.325997
                         17       1   17fx2z             0.357831       0.325997
                         17       1   17fxy2             0.357831       0.325997
                         17       1   17fxyz             0.357831       0.564644
                         17       1   17fxz2             0.357831       0.325997
                         17       1   17fy3              0.357831       0.145790
                         17       1   17fy2z             0.357831       0.325997
                         17       1   17fyz2             0.357831       0.325997
                         17       1   17fz3              0.357831       0.145790

                         18       1   18fx3              1.699212       4.853011
                         18       1   18fx2y             1.699212      10.851663
                         18       1   18fx2z             1.699212      10.851663
                         18       1   18fxy2             1.699212      10.851663
                         18       1   18fxyz             1.699212      18.795632
                         18       1   18fxz2             1.699212      10.851663
                         18       1   18fy3              1.699212       4.853011
                         18       1   18fy2z             1.699212      10.851663
                         18       1   18fyz2             1.699212      10.851663
                         18       1   18fz3              1.699212       4.853011

                         19       1   19fx3              9.330503     223.996314
                         19       1   19fx2y             9.330503     500.870985
                         19       1   19fx2z             9.330503     500.870985
                         19       1   19fxy2             9.330503     500.870985
                         19       1   19fxyz             9.330503     867.533994
                         19       1   19fxz2             9.330503     500.870985
                         19       1   19fy3              9.330503     223.996314
                         19       1   19fy2z             9.330503     500.870985
                         19       1   19fyz2             9.330503     500.870985
                         19       1   19fz3              9.330503     223.996314

       Atomic covalent radius [Angstrom]:                                  0.770

       Atomic van der Waals radius [Angstrom]:                             1.700

     GTH Potential information for                                       GTH-PBE

       Description:                       Goedecker-Teter-Hutter pseudopotential
                                           Goedecker et al., PRB 54, 1703 (1996)
                                          Hartwigsen et al., PRB 58, 3641 (1998)
                                                      Krack, TCA 114, 145 (2005)

       Gaussian exponent of the core charge distribution:               4.364419
       Electronic configuration (s p d ...):                               2   2

       Parameters of the local part of the GTH pseudopotential:

                          rloc        C1          C2          C3          C4
                        0.338471   -8.803674    1.339211

       Parameters of the non-local part of the GTH pseudopotential:

                   l      r(l)      h(i,j,l)

                   0    0.302576    9.622487
                   1    0.291507

  2. Atomic kind: O                                     Number of atoms:       1

     Orbital Basis Set                                        aug-SZV-MOLOPT-GTH

       Number of orbital shell sets:                                           1
       Number of orbital shells:                                               5
       Number of primitive Cartesian functions:                                6
       Number of Cartesian basis functions:                                   14
       Number of spherical basis functions:                                   13
       Norm type:                                                              2

       Normalised Cartesian orbitals:

                        Set   Shell   Orbital            Exponent    Coefficient

                          1       1    2s                0.162492      -0.033677
                                                         0.200000       0.000000
                                                         0.496955      -0.274061
                                                         1.388401      -0.301641
                                                         3.849621       0.208811
                                                        10.389228       0.396646

                          1       2    3s                0.162492      -0.361060
                                                         0.200000       0.497815
                                                         0.496955       0.202465
                                                         1.388401       0.095383
                                                         3.849621       0.000000
                                                        10.389228       0.000000

                          1       3    3px               0.162492      -0.035541
                                                         0.200000       0.000000
                                                         0.496955      -0.253695
                                                         1.388401      -0.761951
                                                         3.849621      -1.371928
                                                        10.389228      -1.530415
                          1       3    3py               0.162492      -0.035541
                                                         0.200000       0.000000
                                                         0.496955      -0.253695
                                                         1.388401      -0.761951
                                                         3.849621      -1.371928
                                                        10.389228      -1.530415
                          1       3    3pz               0.162492      -0.035541
                                                         0.200000       0.000000
                                                         0.496955      -0.253695
                                                         1.388401      -0.761951
                                                         3.849621      -1.371928
                                                        10.389228      -1.530415

                          1       4    4px               0.162492       0.038040
                                                         0.200000       0.066991
                                                         0.496955       0.157162
                                                         1.388401       0.636473
                                                         3.849621       0.000000
                                                        10.389228       0.000000
                          1       4    4py               0.162492       0.038040
                                                         0.200000       0.066991
                                                         0.496955       0.157162
                                                         1.388401       0.636473
                                                         3.849621       0.000000
                                                        10.389228       0.000000
                          1       4    4pz               0.162492       0.038040
                                                         0.200000       0.066991
                                                         0.496955       0.157162
                                                         1.388401       0.636473
                                                         3.849621       0.000000
                                                        10.389228       0.000000

                          1       5    4dx2              0.162492      -0.093119
                                                         0.200000       0.067810
                                                         0.496955      -0.233391
                                                         1.388401       0.119464
                                                         3.849621       0.000000
                                                        10.389228       0.000000
                          1       5    4dxy              0.162492      -0.161287
                                                         0.200000       0.117451
                                                         0.496955      -0.404245
                                                         1.388401       0.206919
                                                         3.849621       0.000000
                                                        10.389228       0.000000
                          1       5    4dxz              0.162492      -0.161287
                                                         0.200000       0.117451
                                                         0.496955      -0.404245
                                                         1.388401       0.206919
                                                         3.849621       0.000000
                                                        10.389228       0.000000
                          1       5    4dy2              0.162492      -0.093119
                                                         0.200000       0.067810
                                                         0.496955      -0.233391
                                                         1.388401       0.119464
                                                         3.849621       0.000000
                                                        10.389228       0.000000
                          1       5    4dyz              0.162492      -0.161287
                                                         0.200000       0.117451
                                                         0.496955      -0.404245
                                                         1.388401       0.206919
                                                         3.849621       0.000000
                                                        10.389228       0.000000
                          1       5    4dz2              0.162492      -0.093119
                                                         0.200000       0.067810
                                                         0.496955      -0.233391
                                                         1.388401       0.119464
                                                         3.849621       0.000000
                                                        10.389228       0.000000

     RI Auxiliary Basis Set             RI_aug-SZV-MOLOPT-GTH_N_RI_078_s_p_d_f_g

       Number of orbital shell sets:                                          22
       Number of orbital shells:                                              22
       Number of primitive Cartesian functions:                               22
       Number of Cartesian basis functions:                                   95
       Number of spherical basis functions:                                   78
       Norm type:                                                              2

       Normalised Cartesian orbitals:

                        Set   Shell   Orbital            Exponent    Coefficient

                          1       1    1s                0.401594       0.359543

                          2       1    2s                0.755894       0.577771

                          3       1    3s                1.416722       0.925494

                          4       1    4s                2.650205       1.480368

                          5       1    5s                4.956718       2.367586

                          6       1    6s                9.262290       3.783980

                          7       1    7s               17.311568       6.048705

                          8       1    8px               0.366288       0.406180
                          8       1    8py               0.366288       0.406180
                          8       1    8pz               0.366288       0.406180

                          9       1    9px               0.838631       1.143941
                          9       1    9py               0.838631       1.143941
                          9       1    9pz               0.838631       1.143941

                         10       1   10px               1.790515       2.952314
                         10       1   10py               1.790515       2.952314
                         10       1   10pz               1.790515       2.952314

                         11       1   11px               3.856077       7.702331
                         11       1   11py               3.856077       7.702331
                         11       1   11pz               3.856077       7.702331

                         12       1   12px               8.163201      19.668248
                         12       1   12py               8.163201      19.668248
                         12       1   12pz               8.163201      19.668248

                         13       1   13px              17.241147      50.078092
                         13       1   13py              17.241147      50.078092
                         13       1   13pz              17.241147      50.078092

                         14       1   14dx2              0.406104       0.340035
                         14       1   14dxy              0.406104       0.588958
                         14       1   14dxz              0.406104       0.588958
                         14       1   14dy2              0.406104       0.340035
                         14       1   14dyz              0.406104       0.588958
                         14       1   14dz2              0.406104       0.340035

                         15       1   15dx2              1.037680       1.755985
                         15       1   15dxy              1.037680       3.041455
                         15       1   15dxz              1.037680       3.041455
                         15       1   15dy2              1.037680       1.755985
                         15       1   15dyz              1.037680       3.041455
                         15       1   15dz2              1.037680       1.755985

                         16       1   16dx2              2.651658       9.069121
                         16       1   16dxy              2.651658      15.708178
                         16       1   16dxz              2.651658      15.708178
                         16       1   16dy2              2.651658       9.069121
                         16       1   16dyz              2.651658      15.708178
                         16       1   16dz2              2.651658       9.069121

                         17       1   17dx2              6.778565      46.870600
                         17       1   17dxy              6.778565      81.182261
                         17       1   17dxz              6.778565      81.182261
                         17       1   17dy2              6.778565      46.870600
                         17       1   17dyz              6.778565      81.182261
                         17       1   17dz2              6.778565      46.870600

                         18       1   18dx2             17.317084     241.958178
                         18       1   18dxy             17.317084     419.083857
                         18       1   18dxz             17.317084     419.083857
                         18       1   18dy2             17.317084     241.958178
                         18       1   18dyz             17.317084     419.083857
                         18       1   18dz2             17.317084     241.958178

                         19       1   19fx3              0.445310       0.238476
                         19       1   19fx2y             0.445310       0.533248
                         19       1   19fx2z             0.445310       0.533248
                         19       1   19fxy2             0.445310       0.533248
                         19       1   19fxyz             0.445310       0.923612
                         19       1   19fxz2             0.445310       0.533248
                         19       1   19fy3              0.445310       0.238476
                         19       1   19fy2z             0.445310       0.533248
                         19       1   19fyz2             0.445310       0.533248
                         19       1   19fz3              0.445310       0.238476

                         20       1   20fx3              1.340594       2.846906
                         20       1   20fx2y             1.340594       6.365876
                         20       1   20fx2z             1.340594       6.365876
                         20       1   20fxy2             1.340594       6.365876
                         20       1   20fxyz             1.340594      11.026020
                         20       1   20fxz2             1.340594       6.365876
                         20       1   20fy3              1.340594       2.846906
                         20       1   20fy2z             1.340594       6.365876
                         20       1   20fyz2             1.340594       6.365876
                         20       1   20fz3              1.340594       2.846906

                         21       1   21fx3              4.941598      53.598921
                         21       1   21fx2y             4.941598     119.850830
                         21       1   21fx2z             4.941598     119.850830
                         21       1   21fxy2             4.941598     119.850830
                         21       1   21fxyz             4.941598     207.587727
                         21       1   21fxz2             4.941598     119.850830
                         21       1   21fy3              4.941598      53.598921
                         21       1   21fy2z             4.941598     119.850830
                         21       1   21fyz2             4.941598     119.850830
                         21       1   21fz3              4.941598      53.598921

                         22       1   22fx3             17.301792     898.792404
                         22       1   22fx2y            17.301792    2009.760913
                         22       1   22fx2z            17.301792    2009.760913
                         22       1   22fxy2            17.301792    2009.760913
                         22       1   22fxyz            17.301792    3481.008013
                         22       1   22fxz2            17.301792    2009.760913
                         22       1   22fy3             17.301792     898.792404
                         22       1   22fy2z            17.301792    2009.760913
                         22       1   22fyz2            17.301792    2009.760913
                         22       1   22fz3             17.301792     898.792404

       Atomic covalent radius [Angstrom]:                                  0.730

       Atomic van der Waals radius [Angstrom]:                             1.520

     GTH Potential information for                                       GTH-PBE

       Description:                       Goedecker-Teter-Hutter pseudopotential
                                           Goedecker et al., PRB 54, 1703 (1996)
                                          Hartwigsen et al., PRB 58, 3641 (1998)
                                                      Krack, TCA 114, 145 (2005)

       Gaussian exponent of the core charge distribution:               8.360253
       Electronic configuration (s p d ...):                               2   4

       Parameters of the local part of the GTH pseudopotential:

                          rloc        C1          C2          C3          C4
                        0.244554  -16.667215    2.487311

       Parameters of the non-local part of the GTH pseudopotential:

                   l      r(l)      h(i,j,l)

                   0    0.220956   18.337458
                   1    0.211332


 MOLECULE KIND INFORMATION


 All atoms are their own molecule, skipping detailed information


 TOTAL NUMBERS AND MAXIMUM NUMBERS

  Total number of            - Atomic kinds:                                   2
                             - Atoms:                                          2
                             - Shell sets:                                     2
                             - Shells:                                        10
                             - Primitive Cartesian functions:                 12
                             - Cartesian basis functions:                     28
                             - Spherical basis functions:                     26

  Maximum angular momentum of- Orbital basis functions:                        2
                             - Local part of the GTH pseudopotential:          2
                             - Non-local part of the GTH pseudopotential:      0


 MODULE QUICKSTEP: ATOMIC COORDINATES IN ANGSTROM

   Atom Kind Element         X             Y             Z       Z(eff)     Mass
      1    1 C     6      4.358500      5.000000      5.000000   4.0000  12.0107
      2    2 O     8      5.641500      5.000000      5.000000   6.0000  15.9994



 SCF PARAMETERS         Density guess:                                   RESTART
                        --------------------------------------------------------
                        max_scf:                                             200
                        max_scf_history:                                       0
                        max_diis:                                              4
                        --------------------------------------------------------
                        eps_scf:                                        1.00E-09
                        eps_scf_history:                                0.00E+00
                        eps_diis:                                       1.00E-01
                        eps_eigval:                                     1.00E-05
                        --------------------------------------------------------
                        level_shift [a.u.]:                             0.000000
                        added MOs                                        21    0
                        --------------------------------------------------------
                        Mixing method:                              PULAY_MIXING
                                                charge density mixing in g-space
                        --------------------------------------------------------
                        No outer SCF

 PW_GRID| Information for grid number                                          1
 PW_GRID| Grid distributed over                                     4 processors
 PW_GRID| Real space group dimensions                                     4    1
 PW_GRID| the grid is blocked:                                                NO
 PW_GRID| Cutoff [a.u.]                                                    200.0
 PW_GRID| spherical cutoff:                                                   NO
 PW_GRID|   Bounds   1            -62      62                Points:         125
 PW_GRID|   Bounds   2            -62      62                Points:         125
 PW_GRID|   Bounds   3            -62      62                Points:         125
 PW_GRID| Volume element (a.u.^3)  0.3455E-02     Volume (a.u.^3)      6748.3346
 PW_GRID| Grid span                                                    FULLSPACE
 PW_GRID|   Distribution                         Average         Max         Min
 PW_GRID|   G-Vectors                           488281.2      488375      488250
 PW_GRID|   G-Rays                                3906.2        3907        3906
 PW_GRID|   Real Space Points                   488281.2      500000      484375

 PW_GRID| Information for grid number                                          2
 PW_GRID| Number of the reference grid                                         1
 PW_GRID| Grid distributed over                                     4 processors
 PW_GRID| Real space group dimensions                                     4    1
 PW_GRID| the grid is blocked:                                                NO
 PW_GRID| Cutoff [a.u.]                                                     66.7
 PW_GRID| spherical cutoff:                                                   NO
 PW_GRID|   Bounds   1            -36      35                Points:          72
 PW_GRID|   Bounds   2            -36      35                Points:          72
 PW_GRID|   Bounds   3            -36      35                Points:          72
 PW_GRID| Volume element (a.u.^3)  0.1808E-01     Volume (a.u.^3)      6748.3346
 PW_GRID| Grid span                                                    FULLSPACE
 PW_GRID|   Distribution                         Average         Max         Min
 PW_GRID|   G-Vectors                            93312.0       93384       93240
 PW_GRID|   G-Rays                                1296.0        1297        1295
 PW_GRID|   Real Space Points                    93312.0       93312       93312

 PW_GRID| Information for grid number                                          3
 PW_GRID| Number of the reference grid                                         1
 PW_GRID| Grid distributed over                                     4 processors
 PW_GRID| Real space group dimensions                                     4    1
 PW_GRID| the grid is blocked:                                                NO
 PW_GRID| Cutoff [a.u.]                                                     22.2
 PW_GRID| spherical cutoff:                                                   NO
 PW_GRID|   Bounds   1            -22      22                Points:          45
 PW_GRID|   Bounds   2            -22      22                Points:          45
 PW_GRID|   Bounds   3            -22      22                Points:          45
 PW_GRID| Volume element (a.u.^3)  0.7406E-01     Volume (a.u.^3)      6748.3346
 PW_GRID| Grid span                                                    FULLSPACE
 PW_GRID|   Distribution                         Average         Max         Min
 PW_GRID|   G-Vectors                            22781.2       22905       22680
 PW_GRID|   G-Rays                                 506.2         509         504
 PW_GRID|   Real Space Points                    22781.2       24300       22275

 PW_GRID| Information for grid number                                          4
 PW_GRID| Number of the reference grid                                         1
 PW_GRID| Grid distributed over                                     4 processors
 PW_GRID| Real space group dimensions                                     4    1
 PW_GRID| the grid is blocked:                                                NO
 PW_GRID| Cutoff [a.u.]                                                      7.4
 PW_GRID| spherical cutoff:                                                   NO
 PW_GRID|   Bounds   1            -12      11                Points:          24
 PW_GRID|   Bounds   2            -12      11                Points:          24
 PW_GRID|   Bounds   3            -12      11                Points:          24
 PW_GRID| Volume element (a.u.^3)  0.4882         Volume (a.u.^3)      6748.3346
 PW_GRID| Grid span                                                    FULLSPACE
 PW_GRID|   Distribution                         Average         Max         Min
 PW_GRID|   G-Vectors                             3456.0        3480        3432
 PW_GRID|   G-Rays                                 144.0         145         143
 PW_GRID|   Real Space Points                     3456.0        3456        3456

 POISSON| Solver                                                         WAVELET
 POISSON| Wavelet| Scaling function                                           40
 POISSON| Periodicity                                                       NONE

 RS_GRID| Information for grid number                                          1
 RS_GRID|   Bounds   1            -62      62                Points:         125
 RS_GRID|   Bounds   2            -62      62                Points:         125
 RS_GRID|   Bounds   3            -62      62                Points:         125
 RS_GRID| Real space fully replicated
 RS_GRID| Group size                                                           1

 RS_GRID| Information for grid number                                          2
 RS_GRID|   Bounds   1            -36      35                Points:          72
 RS_GRID|   Bounds   2            -36      35                Points:          72
 RS_GRID|   Bounds   3            -36      35                Points:          72
 RS_GRID| Real space fully replicated
 RS_GRID| Group size                                                           1

 RS_GRID| Information for grid number                                          3
 RS_GRID|   Bounds   1            -22      22                Points:          45
 RS_GRID|   Bounds   2            -22      22                Points:          45
 RS_GRID|   Bounds   3            -22      22                Points:          45
 RS_GRID| Real space fully replicated
 RS_GRID| Group size                                                           1

 RS_GRID| Information for grid number                                          4
 RS_GRID|   Bounds   1            -12      11                Points:          24
 RS_GRID|   Bounds   2            -12      11                Points:          24
 RS_GRID|   Bounds   3            -12      11                Points:          24
 RS_GRID| Real space fully replicated
 RS_GRID| Group size                                                           1

 Number of electrons:                                                         10
 Number of occupied orbitals:                                                  5
 Number of molecular orbitals:                                                26

 Number of orbital functions:                                                 26
 Number of independent orbital functions:                                     26

 Extrapolation method: initial_guess


 SCF WAVEFUNCTION OPTIMIZATION

  Step     Update method      Time    Convergence         Total energy    Change
  ------------------------------------------------------------------------------
     1 NoMix/Diag. 0.40E+00    1.2     1.7693E-09       -21.6198421321 -2.16E+01
     2 Pulay/Diag. 0.40E+00    1.1     2.4728E-09       -21.6198421351 -2.97E-09
     3 Pulay/Diag. 0.40E+00    1.1     1.7125E-09       -21.6198421298  5.26E-09
     4 Pulay/Diag. 0.40E+00    1.1     1.1387E-09       -21.6198421335 -3.74E-09
     5 Pulay/Diag. 0.40E+00    1.1     7.9276E-10       -21.6198421311  2.48E-09

  *** SCF run converged in     5 steps ***


  Electronic density on regular grids:        -10.0000000008       -0.0000000008
  Core density on regular grids:                9.9999999995       -0.0000000005
  Total charge density on r-space grids:       -0.0000000013
  Total charge density g-space grids:          -0.0000000013

  Overlap energy of the core charge distribution:               0.00000006326961
  Self energy of the core charge distribution:                -54.86121500576408
  Core Hamiltonian energy:                                     15.08850686031429
  Hartree energy:                                              23.10575822782262
  Exchange-correlation energy:                                 -4.95107497007066

  Total energy:                                               -21.61984213106443

 !-----------------------------------------------------------------------------!
                     Mulliken Population Analysis

 #  Atom  Element  Kind  Atomic population                           Net charge
       1     C        1          3.699994                              0.300006
       2     O        2          6.300006                             -0.300006
 # Total charge                             10.000000                 -0.000000

 !-----------------------------------------------------------------------------!

 !-----------------------------------------------------------------------------!
                           Hirshfeld Charges

  #Atom  Element  Kind  Ref Charge     Population                    Net charge
      1       C      1       4.000          3.759                         0.241
      2       O      2       6.000          6.239                        -0.239

  Total Charge                                                            0.003
 !-----------------------------------------------------------------------------!
  
 -------------------------------------------------------------------------------
 -                                                                             -
 -                          BANDSTRUCTURE CALCULATION                          -
 -                                                                             -
 -------------------------------------------------------------------------------
  
 Number of occupied molecular orbitals (MOs) = Number of occupied bands        5
 Number of unoccupied (= virtual) MOs = Number of unoccupied bands            21
 Number of Gaussian basis functions for MOs                                   26
 K-point mesh for the density of states (DOS) and the self-energy      1   1   1
  
 -------------------------------------------------------------------------------
 -                                                                             -
 -                              GW CALCULATION                                 -
 -                                                                             -
 -------------------------------------------------------------------------------
  
 Input: Number of time/freq. points                                           30
 Input: Filter threshold for sparse tensor operations                    1.0E-08
 Apply Hedin shift                                                             F
  
 Number of auxiliary Gaussian basis functions for χ, ε, W                    145
 Cutoff radius for the truncated Coulomb operator in Σ^x:               2645.9 Å
 Cutoff radius for the truncated Coulomb operator in RI metric:            3.0 Å
 Regularization parameter of RI                                          0.0E+00
 Lattice sum size for V(k):                                                    3
  
 K-point mesh 1 for χ, ε, W                                            1   1   1
 K-point mesh 2 for χ, ε, W (for k-point extrapolation of W)           1   1   1
 Approximate the k-point extrapolation                                         F
 Group size for tensor operations                                              4
 The requested group size is > 1 which can lead to bad performance.
 Using more memory per MPI process might improve performance.
 (Also increase MEMORY_PER_PROC when using more memory per process.)
 
 Computed 3-center integrals (µν|P), execution time                        0.2 s
 Percentage of non-zero (µν|P)                                         100.000 %
 Max. distance between µ,ν in non-zero (µν|P)                              1.3 A
 Required memory if storing all 3-center integrals (µν|P)                   0 GB
 
 Number of i and j atoms in M_λνP(τ), N_νλQ(τ):                               36
 Number of inner loop atoms for µ in M_λνP = sum_µ (µν|P) G_µλ                 2
 
 SCF direct band gap (eV)                                                   5.86
 Max. SCF eigval diff. (eV)                                               203.50
 E-Range for minimax grid                                                  34.73
 Number of Padé parameters for analytic continuation:                         16
 
 Read χ(iτ,k=0) from file for time point      1 / 30,    Execution time    0.0 s
 Read χ(iτ,k=0) from file for time point      2 / 30,    Execution time    0.0 s
 Read χ(iτ,k=0) from file for time point      3 / 30,    Execution time    0.0 s
 Read χ(iτ,k=0) from file for time point      4 / 30,    Execution time    0.0 s
 Read χ(iτ,k=0) from file for time point      5 / 30,    Execution time    0.0 s
 Read χ(iτ,k=0) from file for time point      6 / 30,    Execution time    0.0 s
 Read χ(iτ,k=0) from file for time point      7 / 30,    Execution time    0.0 s
 Read χ(iτ,k=0) from file for time point      8 / 30,    Execution time    0.0 s
 Read χ(iτ,k=0) from file for time point      9 / 30,    Execution time    0.0 s
 Read χ(iτ,k=0) from file for time point     10 / 30,    Execution time    0.0 s
 Read χ(iτ,k=0) from file for time point     11 / 30,    Execution time    0.0 s
 Read χ(iτ,k=0) from file for time point     12 / 30,    Execution time    0.0 s
 Read χ(iτ,k=0) from file for time point     13 / 30,    Execution time    0.0 s
 Read χ(iτ,k=0) from file for time point     14 / 30,    Execution time    0.0 s
 Read χ(iτ,k=0) from file for time point     15 / 30,    Execution time    0.0 s
 Read χ(iτ,k=0) from file for time point     16 / 30,    Execution time    0.0 s
 Read χ(iτ,k=0) from file for time point     17 / 30,    Execution time    0.0 s
 Read χ(iτ,k=0) from file for time point     18 / 30,    Execution time    0.0 s
 Read χ(iτ,k=0) from file for time point     19 / 30,    Execution time    0.0 s
 Read χ(iτ,k=0) from file for time point     20 / 30,    Execution time    0.0 s
 Read χ(iτ,k=0) from file for time point     21 / 30,    Execution time    0.0 s
 Read χ(iτ,k=0) from file for time point     22 / 30,    Execution time    0.0 s
 Read χ(iτ,k=0) from file for time point     23 / 30,    Execution time    0.0 s
 Read χ(iτ,k=0) from file for time point     24 / 30,    Execution time    0.0 s
 Read χ(iτ,k=0) from file for time point     25 / 30,    Execution time    0.0 s
 Read χ(iτ,k=0) from file for time point     26 / 30,    Execution time    0.0 s
 Read χ(iτ,k=0) from file for time point     27 / 30,    Execution time    0.0 s
 Read χ(iτ,k=0) from file for time point     28 / 30,    Execution time    0.0 s
 Read χ(iτ,k=0) from file for time point     29 / 30,    Execution time    0.0 s
 Read χ(iτ,k=0) from file for time point     30 / 30,    Execution time    0.0 s
 
 Computed W(iτ,k) for k-point batch           1 /  1,    Execution time    0.2 s
 Computed W(f=0,k) for k-point batch          1 /  1,    Execution time    0.0 s
 
 Read Σ^c(iτ,k=0) from file for time point    1 / 30,    Execution time    0.0 s
 Read Σ^c(iτ,k=0) from file for time point    2 / 30,    Execution time    0.0 s
 Read Σ^c(iτ,k=0) from file for time point    3 / 30,    Execution time    0.0 s
 Read Σ^c(iτ,k=0) from file for time point    4 / 30,    Execution time    0.0 s
 Read Σ^c(iτ,k=0) from file for time point    5 / 30,    Execution time    0.0 s
 Read Σ^c(iτ,k=0) from file for time point    6 / 30,    Execution time    0.0 s
 Read Σ^c(iτ,k=0) from file for time point    7 / 30,    Execution time    0.0 s
 Read Σ^c(iτ,k=0) from file for time point    8 / 30,    Execution time    0.0 s
 Read Σ^c(iτ,k=0) from file for time point    9 / 30,    Execution time    0.0 s
 Read Σ^c(iτ,k=0) from file for time point   10 / 30,    Execution time    0.0 s
 Read Σ^c(iτ,k=0) from file for time point   11 / 30,    Execution time    0.0 s
 Read Σ^c(iτ,k=0) from file for time point   12 / 30,    Execution time    0.0 s
 Read Σ^c(iτ,k=0) from file for time point   13 / 30,    Execution time    0.0 s
 Read Σ^c(iτ,k=0) from file for time point   14 / 30,    Execution time    0.0 s
 Read Σ^c(iτ,k=0) from file for time point   15 / 30,    Execution time    0.0 s
 Read Σ^c(iτ,k=0) from file for time point   16 / 30,    Execution time    0.0 s
 Read Σ^c(iτ,k=0) from file for time point   17 / 30,    Execution time    0.0 s
 Read Σ^c(iτ,k=0) from file for time point   18 / 30,    Execution time    0.0 s
 Read Σ^c(iτ,k=0) from file for time point   19 / 30,    Execution time    0.0 s
 Read Σ^c(iτ,k=0) from file for time point   20 / 30,    Execution time    0.0 s
 Read Σ^c(iτ,k=0) from file for time point   21 / 30,    Execution time    0.0 s
 Read Σ^c(iτ,k=0) from file for time point   22 / 30,    Execution time    0.0 s
 Read Σ^c(iτ,k=0) from file for time point   23 / 30,    Execution time    0.0 s
 Read Σ^c(iτ,k=0) from file for time point   24 / 30,    Execution time    0.0 s
 Read Σ^c(iτ,k=0) from file for time point   25 / 30,    Execution time    0.0 s
 Read Σ^c(iτ,k=0) from file for time point   26 / 30,    Execution time    0.0 s
 Read Σ^c(iτ,k=0) from file for time point   27 / 30,    Execution time    0.0 s
 Read Σ^c(iτ,k=0) from file for time point   28 / 30,    Execution time    0.0 s
 Read Σ^c(iτ,k=0) from file for time point   29 / 30,    Execution time    0.0 s
 Read Σ^c(iτ,k=0) from file for time point   30 / 30,    Execution time    0.0 s
 
 Sparsity of Σ^c(iτ,k=0): Percentage of skipped atom pairs:                0.0 %
 Retaining nl_3c for RTBSE

 
 SCF valence band maximum (eV):                                           -9.186
 SCF conduction band minimum (eV):                                        -3.326
 SCF indirect band gap (eV):                                               5.860
 SCF direct band gap (eV):                                                 5.860
 
 G0W0 valence band maximum (eV):                                         -12.829
 G0W0 conduction band minimum (eV):                                        2.198
 G0W0 indirect band gap (eV):                                             15.026
 G0W0 direct band gap (eV):                                               15.026
 
 Hartree-Fock with SCF orbitals valence band maximum (eV):               -14.562
 Hartree-Fock with SCF orbitals conduction band minimum (eV)               3.044
 Hartree-Fock with SCF orbitals indirect band gap (eV):                   17.606
 Hartree-Fock with SCF orbitals direct band gap (eV):                     17.606

 ENERGY| Total FORCE_EVAL ( QS ) energy [hartree]            -21.619842131064427
 RTBSE| Approximate size of the 3c integrals                       0.75E+000 MiB
 
 /-----------------------------------------------------------------------------\
 |                                                                             |
 |                    Real Time Bethe-Salpeter Propagation                     |
 |                                                                             |
 \-----------------------------------------------------------------------------/
 
 Exponential method                                                          BCH
 Reference Hamiltonian                                                      G0W0
 Apply delta pulse                                                             F


 *** WARNING in emd/rt_bse_io.F:482 :: Restart required but no info file ***
 *** found - starting from sim_step given in input                       ***


 *** WARNING in emd/rt_bse_io.F:508 :: Restart without some restart ***
 *** matrices - starting from SCF density.                          ***


 *** WARNING in emd/rt_bse_io.F:561 :: Restart without previous moments - ***
 *** unknown moments trace set to zero.                                   ***


 *** WARNING in emd/rt_bse_io.F:328 :: Restart without RT field file - ***
 *** unknown field trace set to zero.                                  ***

 RTBSE| Simulation step         Convergence     Electron number  ETRS Iterations
 RTBSE|               0     0.26624444E-007     0.10000000E+002                3
 RTBSE| Simulation step         Convergence     Electron number  ETRS Iterations
 RTBSE|               1     0.28776124E-007     0.10000000E+002                3
 RTBSE| Simulation step         Convergence     Electron number  ETRS Iterations
 RTBSE|               2     0.29075790E-007     0.10000000E+002                3
 RTBSE| Simulation step         Convergence     Electron number  ETRS Iterations
 RTBSE|               3     0.27237214E-007     0.10000000E+002                3
 RTBSE| Simulation step         Convergence     Electron number  ETRS Iterations
 RTBSE|               4     0.22998406E-007     0.10000000E+002                3
 RTBSE| Simulation step         Convergence     Electron number  ETRS Iterations
 RTBSE|               5     0.17002334E-007     0.10000000E+002                3
 RTBSE| Simulation step         Convergence     Electron number  ETRS Iterations
 RTBSE|               6     0.15654209E-007     0.10000000E+002                3
 RTBSE| Simulation step         Convergence     Electron number  ETRS Iterations
 RTBSE|               7     0.84104687E-007     0.10000000E+002                2
 RTBSE| Simulation step         Convergence     Electron number  ETRS Iterations
 RTBSE|               8     0.61282937E-007     0.10000000E+002                2
 RTBSE| Simulation step         Convergence     Electron number  ETRS Iterations
 RTBSE|               9     0.74512360E-007     0.10000000E+002                2
 RTBSE| Simulation step         Convergence     Electron number  ETRS Iterations
 RTBSE|              10     0.94860042E-007     0.10000000E+002                2
 RTBSE| Simulation step         Convergence     Electron number  ETRS Iterations
 RTBSE|              11     0.15748386E-007     0.10000000E+002                3
 RTBSE| Simulation step         Convergence     Electron number  ETRS Iterations
 RTBSE|              12     0.17708688E-007     0.10000000E+002                3
 RTBSE| Simulation step         Convergence     Electron number  ETRS Iterations
 RTBSE|              13     0.20717078E-007     0.10000000E+002                3
 RTBSE| Simulation step         Convergence     Electron number  ETRS Iterations
 RTBSE|              14     0.24761521E-007     0.10000000E+002                3
 RTBSE| Simulation step         Convergence     Electron number  ETRS Iterations
 RTBSE|              15     0.28303311E-007     0.10000000E+002                3
 RTBSE| Simulation step         Convergence     Electron number  ETRS Iterations
 RTBSE|              16     0.29039868E-007     0.10000000E+002                3
 RTBSE| Simulation step         Convergence     Electron number  ETRS Iterations
 RTBSE|              17     0.26925864E-007     0.10000000E+002                3
 RTBSE| Simulation step         Convergence     Electron number  ETRS Iterations
 RTBSE|              18     0.25811302E-007     0.10000000E+002                3
 RTBSE| Simulation step         Convergence     Electron number  ETRS Iterations
 RTBSE|              19     0.26949229E-007     0.10000000E+002                3
 RTBSE| Simulation step         Convergence     Electron number  ETRS Iterations
 RTBSE|              20     0.28740677E-007     0.10000000E+002                3
 RTBSE| Simulation step         Convergence     Electron number  ETRS Iterations
 RTBSE|              21     0.28994101E-007     0.10000000E+002                3
 RTBSE| Simulation step         Convergence     Electron number  ETRS Iterations
 RTBSE|              22     0.26267288E-007     0.10000000E+002                3
 RTBSE| Simulation step         Convergence     Electron number  ETRS Iterations
 RTBSE|              23     0.23269471E-007     0.10000000E+002                3
 RTBSE| Simulation step         Convergence     Electron number  ETRS Iterations
 RTBSE|              24     0.21456173E-007     0.10000000E+002                3
 RTBSE| Simulation step         Convergence     Electron number  ETRS Iterations
 RTBSE|              25     0.19274153E-007     0.10000000E+002                3
 RTBSE| Simulation step         Convergence     Electron number  ETRS Iterations
 RTBSE|              26     0.18730731E-007     0.10000000E+002                3
 RTBSE| Simulation step         Convergence     Electron number  ETRS Iterations
 RTBSE|              27     0.18045638E-007     0.10000000E+002                3
 RTBSE| Simulation step         Convergence     Electron number  ETRS Iterations
 RTBSE|              28     0.16123993E-007     0.10000000E+002                3
 RTBSE| Simulation step         Convergence     Electron number  ETRS Iterations
 RTBSE|              29     0.14526609E-007     0.10000000E+002                3
 RTBSE| Simulation step         Convergence     Electron number  ETRS Iterations
 RTBSE|              30     0.13238742E-007     0.10000000E+002                3
 RTBSE| Simulation step         Convergence     Electron number  ETRS Iterations
 RTBSE|              31     0.15427328E-007     0.10000000E+002                3
 RTBSE| Simulation step         Convergence     Electron number  ETRS Iterations
 RTBSE|              32     0.21321126E-007     0.10000000E+002                3
 RTBSE| Simulation step         Convergence     Electron number  ETRS Iterations
 RTBSE|              33     0.27377175E-007     0.10000000E+002                3
 RTBSE| Simulation step         Convergence     Electron number  ETRS Iterations
 RTBSE|              34     0.33251646E-007     0.10000000E+002                3
 RTBSE| Simulation step         Convergence     Electron number  ETRS Iterations
 RTBSE|              35     0.40148084E-007     0.10000000E+002                3
 RTBSE| Simulation step         Convergence     Electron number  ETRS Iterations
 RTBSE|              36     0.47525977E-007     0.10000000E+002                3
 RTBSE| Simulation step         Convergence     Electron number  ETRS Iterations
 RTBSE|              37     0.54283015E-007     0.10000000E+002                3
 RTBSE| Simulation step         Convergence     Electron number  ETRS Iterations
 RTBSE|              38     0.59645743E-007     0.10000000E+002                3
 RTBSE| Simulation step         Convergence     Electron number  ETRS Iterations
 RTBSE|              39     0.63360779E-007     0.10000000E+002                3
 RTBSE| Simulation step         Convergence     Electron number  ETRS Iterations
 RTBSE|              40     0.66316986E-007     0.10000000E+002                3
 RTBSE| Simulation step         Convergence     Electron number  ETRS Iterations
 RTBSE|              41     0.68186306E-007     0.10000000E+002                3
 RTBSE| Simulation step         Convergence     Electron number  ETRS Iterations
 RTBSE|              42     0.67631841E-007     0.10000000E+002                3
 RTBSE| Simulation step         Convergence     Electron number  ETRS Iterations
 RTBSE|              43     0.63952665E-007     0.10000000E+002                3
 RTBSE| Simulation step         Convergence     Electron number  ETRS Iterations
 RTBSE|              44     0.57990386E-007     0.10000000E+002                3
 RTBSE| Simulation step         Convergence     Electron number  ETRS Iterations
 RTBSE|              45     0.51338617E-007     0.10000000E+002                3
 RTBSE| Simulation step         Convergence     Electron number  ETRS Iterations
 RTBSE|              46     0.45065083E-007     0.10000000E+002                3
 RTBSE| Simulation step         Convergence     Electron number  ETRS Iterations
 RTBSE|              47     0.38500954E-007     0.10000000E+002                3
 RTBSE| Simulation step         Convergence     Electron number  ETRS Iterations
 RTBSE|              48     0.33542798E-007     0.10000000E+002                3
 RTBSE| Simulation step         Convergence     Electron number  ETRS Iterations
 RTBSE|              49     0.31591742E-007     0.10000000E+002                3
 RTBSE| Simulation step         Convergence     Electron number  ETRS Iterations
 RTBSE|              50     0.28969088E-007     0.10000000E+002                3
 RTBSE| Simulation step         Convergence     Electron number  ETRS Iterations
 RTBSE|              51     0.26037247E-007     0.10000000E+002                3
 RTBSE| Simulation step         Convergence     Electron number  ETRS Iterations
 RTBSE|              52     0.23842450E-007     0.10000000E+002                3
 RTBSE| Simulation step         Convergence     Electron number  ETRS Iterations
 RTBSE|              53     0.22565117E-007     0.10000000E+002                3
 RTBSE| Simulation step         Convergence     Electron number  ETRS Iterations
 RTBSE|              54     0.27326070E-007     0.10000000E+002                3
 RTBSE| Simulation step         Convergence     Electron number  ETRS Iterations
 RTBSE|              55     0.37768222E-007     0.10000000E+002                3
 RTBSE| Simulation step         Convergence     Electron number  ETRS Iterations
 RTBSE|              56     0.48577008E-007     0.10000000E+002                3
 RTBSE| Simulation step         Convergence     Electron number  ETRS Iterations
 RTBSE|              57     0.59050966E-007     0.10000000E+002                3
 RTBSE| Simulation step         Convergence     Electron number  ETRS Iterations
 RTBSE|              58     0.69319132E-007     0.10000000E+002                3
 RTBSE| Simulation step         Convergence     Electron number  ETRS Iterations
 RTBSE|              59     0.78729379E-007     0.10000000E+002                3
 RTBSE| Simulation step         Convergence     Electron number  ETRS Iterations
 RTBSE|              60     0.86947178E-007     0.10000000E+002                3
 RTBSE| Simulation step         Convergence     Electron number  ETRS Iterations
 RTBSE|              61     0.94569086E-007     0.10000000E+002                3
 RTBSE| Simulation step         Convergence     Electron number  ETRS Iterations
 RTBSE|              62     0.12252335E-007     0.10000000E+002                4
 RTBSE| Simulation step         Convergence     Electron number  ETRS Iterations
 RTBSE|              63     0.12638155E-007     0.10000000E+002                4
 RTBSE| Simulation step         Convergence     Electron number  ETRS Iterations
 RTBSE|              64     0.12568860E-007     0.10000000E+002                4
 RTBSE| Simulation step         Convergence     Electron number  ETRS Iterations
 RTBSE|              65     0.12107892E-007     0.10000000E+002                4
 RTBSE| Simulation step         Convergence     Electron number  ETRS Iterations
 RTBSE|              66     0.11542684E-007     0.10000000E+002                4
 RTBSE| Simulation step         Convergence     Electron number  ETRS Iterations
 RTBSE|              67     0.96533196E-007     0.10000000E+002                3
 RTBSE| Simulation step         Convergence     Electron number  ETRS Iterations
 RTBSE|              68     0.92628394E-007     0.10000000E+002                3
 RTBSE| Simulation step         Convergence     Electron number  ETRS Iterations
 RTBSE|              69     0.86830073E-007     0.10000000E+002                3
 RTBSE| Simulation step         Convergence     Electron number  ETRS Iterations
 RTBSE|              70     0.77893721E-007     0.10000000E+002                3
 RTBSE| Simulation step         Convergence     Electron number  ETRS Iterations
 RTBSE|              71     0.67179293E-007     0.10000000E+002                3
 RTBSE| Simulation step         Convergence     Electron number  ETRS Iterations
 RTBSE|              72     0.57346906E-007     0.10000000E+002                3
 RTBSE| Simulation step         Convergence     Electron number  ETRS Iterations
 RTBSE|              73     0.50381441E-007     0.10000000E+002                3
 RTBSE| Simulation step         Convergence     Electron number  ETRS Iterations
 RTBSE|              74     0.49212088E-007     0.10000000E+002                3
 RTBSE| Simulation step         Convergence     Electron number  ETRS Iterations
 RTBSE|              75     0.46677327E-007     0.10000000E+002                3
 RTBSE| Simulation step         Convergence     Electron number  ETRS Iterations
 RTBSE|              76     0.42697530E-007     0.10000000E+002                3
 RTBSE| Simulation step         Convergence     Electron number  ETRS Iterations
 RTBSE|              77     0.38584741E-007     0.10000000E+002                3
 RTBSE| Simulation step         Convergence     Electron number  ETRS Iterations
 RTBSE|              78     0.35691859E-007     0.10000000E+002                3
 RTBSE| Simulation step         Convergence     Electron number  ETRS Iterations
 RTBSE|              79     0.43989464E-007     0.10000000E+002                3
 RTBSE| Simulation step         Convergence     Electron number  ETRS Iterations
 RTBSE|              80     0.60117109E-007     0.10000000E+002                3
 RTBSE| Simulation step         Convergence     Electron number  ETRS Iterations
 RTBSE|              81     0.76910750E-007     0.10000000E+002                3
 RTBSE| Simulation step         Convergence     Electron number  ETRS Iterations
 RTBSE|              82     0.92007654E-007     0.10000000E+002                3
 RTBSE| Simulation step         Convergence     Electron number  ETRS Iterations
 RTBSE|              83     0.13177684E-007     0.10000000E+002                4
 RTBSE| Simulation step         Convergence     Electron number  ETRS Iterations
 RTBSE|              84     0.14608218E-007     0.10000000E+002                4
 RTBSE| Simulation step         Convergence     Electron number  ETRS Iterations
 RTBSE|              85     0.15832023E-007     0.10000000E+002                4
 RTBSE| Simulation step         Convergence     Electron number  ETRS Iterations
 RTBSE|              86     0.16754232E-007     0.10000000E+002                4
 RTBSE| Simulation step         Convergence     Electron number  ETRS Iterations
 RTBSE|              87     0.17289607E-007     0.10000000E+002                4
 RTBSE| Simulation step         Convergence     Electron number  ETRS Iterations
 RTBSE|              88     0.17544762E-007     0.10000000E+002                4
 RTBSE| Simulation step         Convergence     Electron number  ETRS Iterations
 RTBSE|              89     0.17789063E-007     0.10000000E+002                4
 RTBSE| Simulation step         Convergence     Electron number  ETRS Iterations
 RTBSE|              90     0.17808163E-007     0.10000000E+002                4
 RTBSE| Simulation step         Convergence     Electron number  ETRS Iterations
 RTBSE|              91     0.17513256E-007     0.10000000E+002                4
 RTBSE| Simulation step         Convergence     Electron number  ETRS Iterations
 RTBSE|              92     0.16918449E-007     0.10000000E+002                4
 RTBSE| Simulation step         Convergence     Electron number  ETRS Iterations
 RTBSE|              93     0.16151101E-007     0.10000000E+002                4
 RTBSE| Simulation step         Convergence     Electron number  ETRS Iterations
 RTBSE|              94     0.15547315E-007     0.10000000E+002                4
 RTBSE| Simulation step         Convergence     Electron number  ETRS Iterations
 RTBSE|              95     0.15607001E-007     0.10000000E+002                4
 RTBSE| Simulation step         Convergence     Electron number  ETRS Iterations
 RTBSE|              96     0.16093442E-007     0.10000000E+002                4
 RTBSE| Simulation step         Convergence     Electron number  ETRS Iterations
 RTBSE|              97     0.16132601E-007     0.10000000E+002                4
 RTBSE| Simulation step         Convergence     Electron number  ETRS Iterations
 RTBSE|              98     0.15618524E-007     0.10000000E+002                4
 RTBSE| Simulation step         Convergence     Electron number  ETRS Iterations
 RTBSE|              99     0.84372016E-007     0.10000000E+002                3
 RTBSE| Simulation step         Convergence     Electron number  ETRS Iterations
 RTBSE|             100     0.82530444E-007     0.10000000E+002                3
 RTBSE| Simulation step         Convergence     Electron number  ETRS Iterations
 RTBSE|             101     0.82293257E-007     0.10000000E+002                3
 RTBSE| Simulation step         Convergence     Electron number  ETRS Iterations
 RTBSE|             102     0.80270380E-007     0.10000000E+002                3
 RTBSE| Simulation step         Convergence     Electron number  ETRS Iterations
 RTBSE|             103     0.75516261E-007     0.10000000E+002                3
 RTBSE| Simulation step         Convergence     Electron number  ETRS Iterations
 RTBSE|             104     0.69343722E-007     0.10000000E+002                3
 RTBSE| Simulation step         Convergence     Electron number  ETRS Iterations
 RTBSE|             105     0.64096431E-007     0.10000000E+002                3
 RTBSE| Simulation step         Convergence     Electron number  ETRS Iterations
 RTBSE|             106     0.85254524E-007     0.10000000E+002                3
 RTBSE| Simulation step         Convergence     Electron number  ETRS Iterations
 RTBSE|             107     0.15121896E-007     0.10000000E+002                4
 RTBSE| Simulation step         Convergence     Electron number  ETRS Iterations
 RTBSE|             108     0.18271157E-007     0.10000000E+002                4
 RTBSE| Simulation step         Convergence     Electron number  ETRS Iterations
 RTBSE|             109     0.21275481E-007     0.10000000E+002                4
 RTBSE| Simulation step         Convergence     Electron number  ETRS Iterations
 RTBSE|             110     0.23908399E-007     0.10000000E+002                4
 RTBSE| Simulation step         Convergence     Electron number  ETRS Iterations
 RTBSE|             111     0.26133672E-007     0.10000000E+002                4
 RTBSE| Simulation step         Convergence     Electron number  ETRS Iterations
 RTBSE|             112     0.28072564E-007     0.10000000E+002                4
 RTBSE| Simulation step         Convergence     Electron number  ETRS Iterations
 RTBSE|             113     0.29576894E-007     0.10000000E+002                4
 RTBSE| Simulation step         Convergence     Electron number  ETRS Iterations
 RTBSE|             114     0.30661534E-007     0.10000000E+002                4
 RTBSE| Simulation step         Convergence     Electron number  ETRS Iterations
 RTBSE|             115     0.31321141E-007     0.10000000E+002                4
 RTBSE| Simulation step         Convergence     Electron number  ETRS Iterations
 RTBSE|             116     0.31640474E-007     0.10000000E+002                4
 RTBSE| Simulation step         Convergence     Electron number  ETRS Iterations
 RTBSE|             117     0.31695812E-007     0.10000000E+002                4
 RTBSE| Simulation step         Convergence     Electron number  ETRS Iterations
 RTBSE|             118     0.31221706E-007     0.10000000E+002                4
 RTBSE| Simulation step         Convergence     Electron number  ETRS Iterations
 RTBSE|             119     0.30207732E-007     0.10000000E+002                4
 RTBSE| Simulation step         Convergence     Electron number  ETRS Iterations
 RTBSE|             120     0.28751465E-007     0.10000000E+002                4
 RTBSE| Simulation step         Convergence     Electron number  ETRS Iterations
 RTBSE|             121     0.28863397E-007     0.10000000E+002                4
 RTBSE| Simulation step         Convergence     Electron number  ETRS Iterations
 RTBSE|             122     0.28869682E-007     0.10000000E+002                4
 RTBSE| Simulation step         Convergence     Electron number  ETRS Iterations
 RTBSE|             123     0.28501206E-007     0.10000000E+002                4
 RTBSE| Simulation step         Convergence     Electron number  ETRS Iterations
 RTBSE|             124     0.27535409E-007     0.10000000E+002                4
 RTBSE| Simulation step         Convergence     Electron number  ETRS Iterations
 RTBSE|             125     0.25990000E-007     0.10000000E+002                4
 RTBSE| Simulation step         Convergence     Electron number  ETRS Iterations
 RTBSE|             126     0.24032087E-007     0.10000000E+002                4
 RTBSE| Simulation step         Convergence     Electron number  ETRS Iterations
 RTBSE|             127     0.22046632E-007     0.10000000E+002                4
 RTBSE| Simulation step         Convergence     Electron number  ETRS Iterations
 RTBSE|             128     0.19880961E-007     0.10000000E+002                4
 RTBSE| Simulation step         Convergence     Electron number  ETRS Iterations
 RTBSE|             129     0.17233496E-007     0.10000000E+002                4
 RTBSE| Simulation step         Convergence     Electron number  ETRS Iterations
 RTBSE|             130     0.13928458E-007     0.10000000E+002                4
 RTBSE| Simulation step         Convergence     Electron number  ETRS Iterations
 RTBSE|             131     0.15567784E-007     0.10000000E+002                4
 RTBSE| Simulation step         Convergence     Electron number  ETRS Iterations
 RTBSE|             132     0.20164998E-007     0.10000000E+002                4
 RTBSE| Simulation step         Convergence     Electron number  ETRS Iterations
 RTBSE|             133     0.25009877E-007     0.10000000E+002                4
 RTBSE| Simulation step         Convergence     Electron number  ETRS Iterations
 RTBSE|             134     0.29918959E-007     0.10000000E+002                4
 RTBSE| Simulation step         Convergence     Electron number  ETRS Iterations
 RTBSE|             135     0.34781412E-007     0.10000000E+002                4
 RTBSE| Simulation step         Convergence     Electron number  ETRS Iterations
 RTBSE|             136     0.39439515E-007     0.10000000E+002                4
 RTBSE| Simulation step         Convergence     Electron number  ETRS Iterations
 RTBSE|             137     0.43645687E-007     0.10000000E+002                4
 RTBSE| Simulation step         Convergence     Electron number  ETRS Iterations
 RTBSE|             138     0.47253526E-007     0.10000000E+002                4
 RTBSE| Simulation step         Convergence     Electron number  ETRS Iterations
 RTBSE|             139     0.50173637E-007     0.10000000E+002                4
 RTBSE| Simulation step         Convergence     Electron number  ETRS Iterations
 RTBSE|             140     0.52376394E-007     0.10000000E+002                4
 RTBSE| Simulation step         Convergence     Electron number  ETRS Iterations
 RTBSE|             141     0.53866390E-007     0.10000000E+002                4
 RTBSE| Simulation step         Convergence     Electron number  ETRS Iterations
 RTBSE|             142     0.54666316E-007     0.10000000E+002                4
 RTBSE| Simulation step         Convergence     Electron number  ETRS Iterations
 RTBSE|             143     0.54640581E-007     0.10000000E+002                4
 RTBSE| Simulation step         Convergence     Electron number  ETRS Iterations
 RTBSE|             144     0.53718539E-007     0.10000000E+002                4
 RTBSE| Simulation step         Convergence     Electron number  ETRS Iterations
 RTBSE|             145     0.51815367E-007     0.10000000E+002                4
 RTBSE| Simulation step         Convergence     Electron number  ETRS Iterations
 RTBSE|             146     0.50890865E-007     0.10000000E+002                4
 RTBSE| Simulation step         Convergence     Electron number  ETRS Iterations
 RTBSE|             147     0.51010376E-007     0.10000000E+002                4
 RTBSE| Simulation step         Convergence     Electron number  ETRS Iterations
 RTBSE|             148     0.50563300E-007     0.10000000E+002                4
 RTBSE| Simulation step         Convergence     Electron number  ETRS Iterations
 RTBSE|             149     0.49428016E-007     0.10000000E+002                4
 RTBSE| Simulation step         Convergence     Electron number  ETRS Iterations
 RTBSE|             150     0.47460317E-007     0.10000000E+002                4
 RTBSE| Simulation step         Convergence     Electron number  ETRS Iterations
 RTBSE|             151     0.44456876E-007     0.10000000E+002                4
 RTBSE| Simulation step         Convergence     Electron number  ETRS Iterations
 RTBSE|             152     0.40492000E-007     0.10000000E+002                4
 RTBSE| Simulation step         Convergence     Electron number  ETRS Iterations
 RTBSE|             153     0.35827397E-007     0.10000000E+002                4
 RTBSE| Simulation step         Convergence     Electron number  ETRS Iterations
 RTBSE|             154     0.30482110E-007     0.10000000E+002                4
 RTBSE| Simulation step         Convergence     Electron number  ETRS Iterations
 RTBSE|             155     0.24421610E-007     0.10000000E+002                4
 RTBSE| Simulation step         Convergence     Electron number  ETRS Iterations
 RTBSE|             156     0.23943715E-007     0.10000000E+002                4
 RTBSE| Simulation step         Convergence     Electron number  ETRS Iterations
 RTBSE|             157     0.31569503E-007     0.10000000E+002                4
 RTBSE| Simulation step         Convergence     Electron number  ETRS Iterations
 RTBSE|             158     0.39486440E-007     0.10000000E+002                4
 RTBSE| Simulation step         Convergence     Electron number  ETRS Iterations
 RTBSE|             159     0.47264092E-007     0.10000000E+002                4
 RTBSE| Simulation step         Convergence     Electron number  ETRS Iterations
 RTBSE|             160     0.54657649E-007     0.10000000E+002                4
 RTBSE| Simulation step         Convergence     Electron number  ETRS Iterations
 RTBSE|             161     0.61517590E-007     0.10000000E+002                4
 RTBSE| Simulation step         Convergence     Electron number  ETRS Iterations
 RTBSE|             162     0.67663071E-007     0.10000000E+002                4
 RTBSE| Simulation step         Convergence     Electron number  ETRS Iterations
 RTBSE|             163     0.73001476E-007     0.10000000E+002                4
 RTBSE| Simulation step         Convergence     Electron number  ETRS Iterations
 RTBSE|             164     0.77429175E-007     0.10000000E+002                4
 RTBSE| Simulation step         Convergence     Electron number  ETRS Iterations
 RTBSE|             165     0.80893038E-007     0.10000000E+002                4
 RTBSE| Simulation step         Convergence     Electron number  ETRS Iterations
 RTBSE|             166     0.83252663E-007     0.10000000E+002                4
 RTBSE| Simulation step         Convergence     Electron number  ETRS Iterations
 RTBSE|             167     0.84375910E-007     0.10000000E+002                4
 RTBSE| Simulation step         Convergence     Electron number  ETRS Iterations
 RTBSE|             168     0.84227562E-007     0.10000000E+002                4
 RTBSE| Simulation step         Convergence     Electron number  ETRS Iterations
 RTBSE|             169     0.82902562E-007     0.10000000E+002                4
 RTBSE| Simulation step         Convergence     Electron number  ETRS Iterations
 RTBSE|             170     0.80510545E-007     0.10000000E+002                4
 RTBSE| Simulation step         Convergence     Electron number  ETRS Iterations
 RTBSE|             171     0.78258318E-007     0.10000000E+002                4
 RTBSE| Simulation step         Convergence     Electron number  ETRS Iterations
 RTBSE|             172     0.78958020E-007     0.10000000E+002                4
 RTBSE| Simulation step         Convergence     Electron number  ETRS Iterations
 RTBSE|             173     0.78246195E-007     0.10000000E+002                4
 RTBSE| Simulation step         Convergence     Electron number  ETRS Iterations
 RTBSE|             174     0.76261279E-007     0.10000000E+002                4
 RTBSE| Simulation step         Convergence     Electron number  ETRS Iterations
 RTBSE|             175     0.73279236E-007     0.10000000E+002                4
 RTBSE| Simulation step         Convergence     Electron number  ETRS Iterations
 RTBSE|             176     0.69397483E-007     0.10000000E+002                4
 RTBSE| Simulation step         Convergence     Electron number  ETRS Iterations
 RTBSE|             177     0.64040015E-007     0.10000000E+002                4
 RTBSE| Simulation step         Convergence     Electron number  ETRS Iterations
 RTBSE|             178     0.57018661E-007     0.10000000E+002                4
 RTBSE| Simulation step         Convergence     Electron number  ETRS Iterations
 RTBSE|             179     0.48533322E-007     0.10000000E+002                4
 RTBSE| Simulation step         Convergence     Electron number  ETRS Iterations
 RTBSE|             180     0.39028978E-007     0.10000000E+002                4
 RTBSE| Simulation step         Convergence     Electron number  ETRS Iterations
 RTBSE|             181     0.32515047E-007     0.10000000E+002                4
 RTBSE| Simulation step         Convergence     Electron number  ETRS Iterations
 RTBSE|             182     0.43118562E-007     0.10000000E+002                4
 RTBSE| Simulation step         Convergence     Electron number  ETRS Iterations
 RTBSE|             183     0.54562868E-007     0.10000000E+002                4
 RTBSE| Simulation step         Convergence     Electron number  ETRS Iterations
 RTBSE|             184     0.66073697E-007     0.10000000E+002                4
 RTBSE| Simulation step         Convergence     Electron number  ETRS Iterations
 RTBSE|             185     0.76969876E-007     0.10000000E+002                4
 RTBSE| Simulation step         Convergence     Electron number  ETRS Iterations
 RTBSE|             186     0.86910264E-007     0.10000000E+002                4
 RTBSE| Simulation step         Convergence     Electron number  ETRS Iterations
 RTBSE|             187     0.95893002E-007     0.10000000E+002                4
 RTBSE| Simulation step         Convergence     Electron number  ETRS Iterations
 RTBSE|             188     0.17557194E-007     0.10000000E+002                5
 RTBSE| Simulation step         Convergence     Electron number  ETRS Iterations
 RTBSE|             189     0.19013695E-007     0.10000000E+002                5
 RTBSE| Simulation step         Convergence     Electron number  ETRS Iterations
 RTBSE|             190     0.20233603E-007     0.10000000E+002                5
 RTBSE| Simulation step         Convergence     Electron number  ETRS Iterations
 RTBSE|             191     0.21142128E-007     0.10000000E+002                5
 RTBSE| Simulation step         Convergence     Electron number  ETRS Iterations
 RTBSE|             192     0.21766359E-007     0.10000000E+002                5
 RTBSE| Simulation step         Convergence     Electron number  ETRS Iterations
 RTBSE|             193     0.22090296E-007     0.10000000E+002                5
 RTBSE| Simulation step         Convergence     Electron number  ETRS Iterations
 RTBSE|             194     0.22076867E-007     0.10000000E+002                5
 RTBSE| Simulation step         Convergence     Electron number  ETRS Iterations
 RTBSE|             195     0.21705995E-007     0.10000000E+002                5
 RTBSE| Simulation step         Convergence     Electron number  ETRS Iterations
 RTBSE|             196     0.21017113E-007     0.10000000E+002                5
 RTBSE| Simulation step         Convergence     Electron number  ETRS Iterations
 RTBSE|             197     0.19987988E-007     0.10000000E+002                5
 RTBSE| Simulation step         Convergence     Electron number  ETRS Iterations
 RTBSE|             198     0.18657588E-007     0.10000000E+002                5
 RTBSE| Simulation step         Convergence     Electron number  ETRS Iterations
 RTBSE|             199     0.16992339E-007     0.10000000E+002                5
 RTBSE| Simulation step         Convergence     Electron number  ETRS Iterations
 RTBSE|             200     0.14985971E-007     0.10000000E+002                5
 RTBSE| Simulation step         Convergence     Electron number  ETRS Iterations
 RTBSE|             201     0.12690204E-007     0.10000000E+002                5
 RTBSE| Simulation step         Convergence     Electron number  ETRS Iterations
 RTBSE|             202     0.93313286E-007     0.10000000E+002                4
 RTBSE| Simulation step         Convergence     Electron number  ETRS Iterations
 RTBSE|             203     0.84379083E-007     0.10000000E+002                4
 RTBSE| Simulation step         Convergence     Electron number  ETRS Iterations
 RTBSE|             204     0.74031035E-007     0.10000000E+002                4
 RTBSE| Simulation step         Convergence     Electron number  ETRS Iterations
 RTBSE|             205     0.61876088E-007     0.10000000E+002                4
 RTBSE| Simulation step         Convergence     Electron number  ETRS Iterations
 RTBSE|             206     0.48191052E-007     0.10000000E+002                4
 RTBSE| Simulation step         Convergence     Electron number  ETRS Iterations
 RTBSE|             207     0.51975263E-007     0.10000000E+002                4
 RTBSE| Simulation step         Convergence     Electron number  ETRS Iterations
 RTBSE|             208     0.67018671E-007     0.10000000E+002                4
 RTBSE| Simulation step         Convergence     Electron number  ETRS Iterations
 RTBSE|             209     0.82614307E-007     0.10000000E+002                4
 RTBSE| Simulation step         Convergence     Electron number  ETRS Iterations
 RTBSE|             210     0.98227375E-007     0.10000000E+002                4
 RTBSE| Simulation step         Convergence     Electron number  ETRS Iterations
 RTBSE|             211     0.18032692E-007     0.10000000E+002                5
 RTBSE| Simulation step         Convergence     Electron number  ETRS Iterations
 RTBSE|             212     0.20931864E-007     0.10000000E+002                5
 RTBSE| Simulation step         Convergence     Electron number  ETRS Iterations
 RTBSE|             213     0.23539678E-007     0.10000000E+002                5
 RTBSE| Simulation step         Convergence     Electron number  ETRS Iterations
 RTBSE|             214     0.25810664E-007     0.10000000E+002                5
 RTBSE| Simulation step         Convergence     Electron number  ETRS Iterations
 RTBSE|             215     0.27737334E-007     0.10000000E+002                5
 RTBSE| Simulation step         Convergence     Electron number  ETRS Iterations
 RTBSE|             216     0.29297114E-007     0.10000000E+002                5
 RTBSE| Simulation step         Convergence     Electron number  ETRS Iterations
 RTBSE|             217     0.30432839E-007     0.10000000E+002                5
 RTBSE| Simulation step         Convergence     Electron number  ETRS Iterations
 RTBSE|             218     0.31115643E-007     0.10000000E+002                5
 RTBSE| Simulation step         Convergence     Electron number  ETRS Iterations
 RTBSE|             219     0.31306444E-007     0.10000000E+002                5
 RTBSE| Simulation step         Convergence     Electron number  ETRS Iterations
 RTBSE|             220     0.31045665E-007     0.10000000E+002                5
 RTBSE| Simulation step         Convergence     Electron number  ETRS Iterations
 RTBSE|             221     0.30325364E-007     0.10000000E+002                5
 RTBSE| Simulation step         Convergence     Electron number  ETRS Iterations
 RTBSE|             222     0.29173740E-007     0.10000000E+002                5
 RTBSE| Simulation step         Convergence     Electron number  ETRS Iterations
 RTBSE|             223     0.27588040E-007     0.10000000E+002                5
 RTBSE| Simulation step         Convergence     Electron number  ETRS Iterations
 RTBSE|             224     0.25551942E-007     0.10000000E+002                5
 RTBSE| Simulation step         Convergence     Electron number  ETRS Iterations
 RTBSE|             225     0.23088303E-007     0.10000000E+002                5
 RTBSE| Simulation step         Convergence     Electron number  ETRS Iterations
 RTBSE|             226     0.20188486E-007     0.10000000E+002                5
 RTBSE| Simulation step         Convergence     Electron number  ETRS Iterations
 RTBSE|             227     0.16976078E-007     0.10000000E+002                5
 RTBSE| Simulation step         Convergence     Electron number  ETRS Iterations
 RTBSE|             228     0.15754111E-007     0.10000000E+002                5
 RTBSE| Simulation step         Convergence     Electron number  ETRS Iterations
 RTBSE|             229     0.14384377E-007     0.10000000E+002                5
 RTBSE| Simulation step         Convergence     Electron number  ETRS Iterations
 RTBSE|             230     0.99202664E-007     0.10000000E+002                4
 RTBSE| Simulation step         Convergence     Electron number  ETRS Iterations
 RTBSE|             231     0.81554615E-007     0.10000000E+002                4
 RTBSE| Simulation step         Convergence     Electron number  ETRS Iterations
 RTBSE|             232     0.62012348E-007     0.10000000E+002                4
 RTBSE| Simulation step         Convergence     Electron number  ETRS Iterations
 RTBSE|             233     0.77615782E-007     0.10000000E+002                4
 RTBSE| Simulation step         Convergence     Electron number  ETRS Iterations
 RTBSE|             234     0.98822802E-007     0.10000000E+002                4
 RTBSE| Simulation step         Convergence     Electron number  ETRS Iterations
 RTBSE|             235     0.17292154E-007     0.10000000E+002                5
 RTBSE| Simulation step         Convergence     Electron number  ETRS Iterations
 RTBSE|             236     0.21527317E-007     0.10000000E+002                5
 RTBSE| Simulation step         Convergence     Electron number  ETRS Iterations
 RTBSE|             237     0.25566708E-007     0.10000000E+002                5
 RTBSE| Simulation step         Convergence     Electron number  ETRS Iterations
 RTBSE|             238     0.29324955E-007     0.10000000E+002                5
 RTBSE| Simulation step         Convergence     Electron number  ETRS Iterations
 RTBSE|             239     0.32686478E-007     0.10000000E+002                5
 RTBSE| Simulation step         Convergence     Electron number  ETRS Iterations
 RTBSE|             240     0.35608421E-007     0.10000000E+002                5
 RTBSE| Simulation step         Convergence     Electron number  ETRS Iterations
 RTBSE|             241     0.38026533E-007     0.10000000E+002                5
 RTBSE| Simulation step         Convergence     Electron number  ETRS Iterations
 RTBSE|             242     0.39906928E-007     0.10000000E+002                5
 RTBSE| Simulation step         Convergence     Electron number  ETRS Iterations
 RTBSE|             243     0.41226932E-007     0.10000000E+002                5
 RTBSE| Simulation step         Convergence     Electron number  ETRS Iterations
 RTBSE|             244     0.41963307E-007     0.10000000E+002                5
 RTBSE| Simulation step         Convergence     Electron number  ETRS Iterations
 RTBSE|             245     0.42106752E-007     0.10000000E+002                5
 RTBSE| Simulation step         Convergence     Electron number  ETRS Iterations
 RTBSE|             246     0.41616750E-007     0.10000000E+002                5
 RTBSE| Simulation step         Convergence     Electron number  ETRS Iterations
 RTBSE|             247     0.40490279E-007     0.10000000E+002                5
 RTBSE| Simulation step         Convergence     Electron number  ETRS Iterations
 RTBSE|             248     0.38705267E-007     0.10000000E+002                5
 RTBSE| Simulation step         Convergence     Electron number  ETRS Iterations
 RTBSE|             249     0.36332919E-007     0.10000000E+002                5
 RTBSE| Simulation step         Convergence     Electron number  ETRS Iterations
 RTBSE|             250     0.33360924E-007     0.10000000E+002                5
 RTBSE| Simulation step         Convergence     Electron number  ETRS Iterations
 RTBSE|             251     0.29852733E-007     0.10000000E+002                5
 RTBSE| Simulation step         Convergence     Electron number  ETRS Iterations
 RTBSE|             252     0.25780737E-007     0.10000000E+002                5
 RTBSE| Simulation step         Convergence     Electron number  ETRS Iterations
 RTBSE|             253     0.22486135E-007     0.10000000E+002                5
 RTBSE| Simulation step         Convergence     Electron number  ETRS Iterations
 RTBSE|             254     0.20696711E-007     0.10000000E+002                5
 RTBSE| Simulation step         Convergence     Electron number  ETRS Iterations
 RTBSE|             255     0.18725663E-007     0.10000000E+002                5
 RTBSE| Simulation step         Convergence     Electron number  ETRS Iterations
 RTBSE|             256     0.17071971E-007     0.10000000E+002                5
 RTBSE| Simulation step         Convergence     Electron number  ETRS Iterations
 RTBSE|             257     0.15255536E-007     0.10000000E+002                5
 RTBSE| Simulation step         Convergence     Electron number  ETRS Iterations
 RTBSE|             258     0.84886993E-007     0.10000000E+002                4
 RTBSE| Simulation step         Convergence     Electron number  ETRS Iterations
 RTBSE|             259     0.12905840E-007     0.10000000E+002                5
 RTBSE| Simulation step         Convergence     Electron number  ETRS Iterations
 RTBSE|             260     0.19044082E-007     0.10000000E+002                5
 RTBSE| Simulation step         Convergence     Electron number  ETRS Iterations
 RTBSE|             261     0.25027203E-007     0.10000000E+002                5
 RTBSE| Simulation step         Convergence     Electron number  ETRS Iterations
 RTBSE|             262     0.30769648E-007     0.10000000E+002                5
 RTBSE| Simulation step         Convergence     Electron number  ETRS Iterations
 RTBSE|             263     0.36205223E-007     0.10000000E+002                5
 RTBSE| Simulation step         Convergence     Electron number  ETRS Iterations
 RTBSE|             264     0.41282542E-007     0.10000000E+002                5
 RTBSE| Simulation step         Convergence     Electron number  ETRS Iterations
 RTBSE|             265     0.45863432E-007     0.10000000E+002                5
 RTBSE| Simulation step         Convergence     Electron number  ETRS Iterations
 RTBSE|             266     0.49831812E-007     0.10000000E+002                5
 RTBSE| Simulation step         Convergence     Electron number  ETRS Iterations
 RTBSE|             267     0.53112475E-007     0.10000000E+002                5
 RTBSE| Simulation step         Convergence     Electron number  ETRS Iterations
 RTBSE|             268     0.55660189E-007     0.10000000E+002                5
 RTBSE| Simulation step         Convergence     Electron number  ETRS Iterations
 RTBSE|             269     0.57434070E-007     0.10000000E+002                5
 RTBSE| Simulation step         Convergence     Electron number  ETRS Iterations
 RTBSE|             270     0.58395300E-007     0.10000000E+002                5
 RTBSE| Simulation step         Convergence     Electron number  ETRS Iterations
 RTBSE|             271     0.58440402E-007     0.10000000E+002                5
 RTBSE| Simulation step         Convergence     Electron number  ETRS Iterations
 RTBSE|             272     0.57567823E-007     0.10000000E+002                5
 RTBSE| Simulation step         Convergence     Electron number  ETRS Iterations
 RTBSE|             273     0.55745671E-007     0.10000000E+002                5
 RTBSE| Simulation step         Convergence     Electron number  ETRS Iterations
 RTBSE|             274     0.52995330E-007     0.10000000E+002                5
 RTBSE| Simulation step         Convergence     Electron number  ETRS Iterations
 RTBSE|             275     0.49326267E-007     0.10000000E+002                5
 RTBSE| Simulation step         Convergence     Electron number  ETRS Iterations
 RTBSE|             276     0.44777581E-007     0.10000000E+002                5
 RTBSE| Simulation step         Convergence     Electron number  ETRS Iterations
 RTBSE|             277     0.39412098E-007     0.10000000E+002                5
 RTBSE| Simulation step         Convergence     Electron number  ETRS Iterations
 RTBSE|             278     0.33358244E-007     0.10000000E+002                5
 RTBSE| Simulation step         Convergence     Electron number  ETRS Iterations
 RTBSE|             279     0.29832426E-007     0.10000000E+002                5
 RTBSE| Simulation step         Convergence     Electron number  ETRS Iterations
 RTBSE|             280     0.27192273E-007     0.10000000E+002                5
 RTBSE| Simulation step         Convergence     Electron number  ETRS Iterations
 RTBSE|             281     0.24276330E-007     0.10000000E+002                5
 RTBSE| Simulation step         Convergence     Electron number  ETRS Iterations
 RTBSE|             282     0.21765100E-007     0.10000000E+002                5
 RTBSE| Simulation step         Convergence     Electron number  ETRS Iterations
 RTBSE|             283     0.18897505E-007     0.10000000E+002                5
 RTBSE| Simulation step         Convergence     Electron number  ETRS Iterations
 RTBSE|             284     0.15846802E-007     0.10000000E+002                5
 RTBSE| Simulation step         Convergence     Electron number  ETRS Iterations
 RTBSE|             285     0.20214313E-007     0.10000000E+002                5
 RTBSE| Simulation step         Convergence     Electron number  ETRS Iterations
 RTBSE|             286     0.28060888E-007     0.10000000E+002                5
 RTBSE| Simulation step         Convergence     Electron number  ETRS Iterations
 RTBSE|             287     0.35619334E-007     0.10000000E+002                5
 RTBSE| Simulation step         Convergence     Electron number  ETRS Iterations
 RTBSE|             288     0.42681004E-007     0.10000000E+002                5
 RTBSE| Simulation step         Convergence     Electron number  ETRS Iterations
 RTBSE|             289     0.49134117E-007     0.10000000E+002                5
 RTBSE| Simulation step         Convergence     Electron number  ETRS Iterations
 RTBSE|             290     0.54929278E-007     0.10000000E+002                5
 RTBSE| Simulation step         Convergence     Electron number  ETRS Iterations
 RTBSE|             291     0.60022284E-007     0.10000000E+002                5
 RTBSE| Simulation step         Convergence     Electron number  ETRS Iterations
 RTBSE|             292     0.64326214E-007     0.10000000E+002                5
 RTBSE| Simulation step         Convergence     Electron number  ETRS Iterations
 RTBSE|             293     0.67719928E-007     0.10000000E+002                5
 RTBSE| Simulation step         Convergence     Electron number  ETRS Iterations
 RTBSE|             294     0.70128874E-007     0.10000000E+002                5
 RTBSE| Simulation step         Convergence     Electron number  ETRS Iterations
 RTBSE|             295     0.71525242E-007     0.10000000E+002                5
 RTBSE| Simulation step         Convergence     Electron number  ETRS Iterations
 RTBSE|             296     0.71924242E-007     0.10000000E+002                5
 RTBSE| Simulation step         Convergence     Electron number  ETRS Iterations
 RTBSE|             297     0.71335407E-007     0.10000000E+002                5
 RTBSE| Simulation step         Convergence     Electron number  ETRS Iterations
 RTBSE|             298     0.69678575E-007     0.10000000E+002                5
 RTBSE| Simulation step         Convergence     Electron number  ETRS Iterations
 RTBSE|             299     0.66948569E-007     0.10000000E+002                5
 RTBSE| Simulation step         Convergence     Electron number  ETRS Iterations
 RTBSE|             300     0.63181267E-007     0.10000000E+002                5
 RTBSE| Simulation step         Convergence     Electron number  ETRS Iterations
 RTBSE|             301     0.58405273E-007     0.10000000E+002                5
 RTBSE| Simulation step         Convergence     Electron number  ETRS Iterations
 RTBSE|             302     0.52696493E-007     0.10000000E+002                5
 RTBSE| Simulation step         Convergence     Electron number  ETRS Iterations
 RTBSE|             303     0.46099459E-007     0.10000000E+002                5
 RTBSE| Simulation step         Convergence     Electron number  ETRS Iterations
 RTBSE|             304     0.39241265E-007     0.10000000E+002                5
 RTBSE| Simulation step         Convergence     Electron number  ETRS Iterations
 RTBSE|             305     0.36283764E-007     0.10000000E+002                5
 RTBSE| Simulation step         Convergence     Electron number  ETRS Iterations
 RTBSE|             306     0.32914474E-007     0.10000000E+002                5
 RTBSE| Simulation step         Convergence     Electron number  ETRS Iterations
 RTBSE|             307     0.29783363E-007     0.10000000E+002                5
 RTBSE| Simulation step         Convergence     Electron number  ETRS Iterations
 RTBSE|             308     0.26576161E-007     0.10000000E+002                5
 RTBSE| Simulation step         Convergence     Electron number  ETRS Iterations
 RTBSE|             309     0.22911449E-007     0.10000000E+002                5
 RTBSE| Simulation step         Convergence     Electron number  ETRS Iterations
 RTBSE|             310     0.19592229E-007     0.10000000E+002                5
 RTBSE| Simulation step         Convergence     Electron number  ETRS Iterations
 RTBSE|             311     0.28712564E-007     0.10000000E+002                5
 RTBSE| Simulation step         Convergence     Electron number  ETRS Iterations
 RTBSE|             312     0.38867535E-007     0.10000000E+002                5
 RTBSE| Simulation step         Convergence     Electron number  ETRS Iterations
 RTBSE|             313     0.48692133E-007     0.10000000E+002                5
 RTBSE| Simulation step         Convergence     Electron number  ETRS Iterations
 RTBSE|             314     0.58005126E-007     0.10000000E+002                5
 RTBSE| Simulation step         Convergence     Electron number  ETRS Iterations
 RTBSE|             315     0.66596543E-007     0.10000000E+002                5
 RTBSE| Simulation step         Convergence     Electron number  ETRS Iterations
 RTBSE|             316     0.74314371E-007     0.10000000E+002                5
 RTBSE| Simulation step         Convergence     Electron number  ETRS Iterations
 RTBSE|             317     0.81021292E-007     0.10000000E+002                5
 RTBSE| Simulation step         Convergence     Electron number  ETRS Iterations
 RTBSE|             318     0.86612252E-007     0.10000000E+002                5
 RTBSE| Simulation step         Convergence     Electron number  ETRS Iterations
 RTBSE|             319     0.90993587E-007     0.10000000E+002                5
 RTBSE| Simulation step         Convergence     Electron number  ETRS Iterations
 RTBSE|             320     0.94014709E-007     0.10000000E+002                5
 RTBSE| Simulation step         Convergence     Electron number  ETRS Iterations
 RTBSE|             321     0.95564445E-007     0.10000000E+002                5
 RTBSE| Simulation step         Convergence     Electron number  ETRS Iterations
 RTBSE|             322     0.95606296E-007     0.10000000E+002                5
 RTBSE| Simulation step         Convergence     Electron number  ETRS Iterations
 RTBSE|             323     0.94138853E-007     0.10000000E+002                5
 RTBSE| Simulation step         Convergence     Electron number  ETRS Iterations
 RTBSE|             324     0.91192461E-007     0.10000000E+002                5
 RTBSE| Simulation step         Convergence     Electron number  ETRS Iterations
 RTBSE|             325     0.86794302E-007     0.10000000E+002                5
 RTBSE| Simulation step         Convergence     Electron number  ETRS Iterations
 RTBSE|             326     0.80967660E-007     0.10000000E+002                5
 RTBSE| Simulation step         Convergence     Electron number  ETRS Iterations
 RTBSE|             327     0.73821079E-007     0.10000000E+002                5
 RTBSE| Simulation step         Convergence     Electron number  ETRS Iterations
 RTBSE|             328     0.65423852E-007     0.10000000E+002                5
 RTBSE| Simulation step         Convergence     Electron number  ETRS Iterations
 RTBSE|             329     0.55943883E-007     0.10000000E+002                5
 RTBSE| Simulation step         Convergence     Electron number  ETRS Iterations
 RTBSE|             330     0.48575612E-007     0.10000000E+002                5
 RTBSE| Simulation step         Convergence     Electron number  ETRS Iterations
 RTBSE|             331     0.44199773E-007     0.10000000E+002                5
 RTBSE| Simulation step         Convergence     Electron number  ETRS Iterations
 RTBSE|             332     0.39462102E-007     0.10000000E+002                5
 RTBSE| Simulation step         Convergence     Electron number  ETRS Iterations
 RTBSE|             333     0.35089916E-007     0.10000000E+002                5
 RTBSE| Simulation step         Convergence     Electron number  ETRS Iterations
 RTBSE|             334     0.30472102E-007     0.10000000E+002                5
 RTBSE| Simulation step         Convergence     Electron number  ETRS Iterations
 RTBSE|             335     0.25366222E-007     0.10000000E+002                5
 RTBSE| Simulation step         Convergence     Electron number  ETRS Iterations
 RTBSE|             336     0.27979044E-007     0.10000000E+002                5
 RTBSE| Simulation step         Convergence     Electron number  ETRS Iterations
 RTBSE|             337     0.39851240E-007     0.10000000E+002                5
 RTBSE| Simulation step         Convergence     Electron number  ETRS Iterations
 RTBSE|             338     0.51215174E-007     0.10000000E+002                5
 RTBSE| Simulation step         Convergence     Electron number  ETRS Iterations
 RTBSE|             339     0.61909961E-007     0.10000000E+002                5
 RTBSE| Simulation step         Convergence     Electron number  ETRS Iterations
 RTBSE|             340     0.71764898E-007     0.10000000E+002                5
 RTBSE| Simulation step         Convergence     Electron number  ETRS Iterations
 RTBSE|             341     0.80639598E-007     0.10000000E+002                5
 RTBSE| Simulation step         Convergence     Electron number  ETRS Iterations
 RTBSE|             342     0.88349698E-007     0.10000000E+002                5
 RTBSE| Simulation step         Convergence     Electron number  ETRS Iterations
 RTBSE|             343     0.94854521E-007     0.10000000E+002                5
 RTBSE| Simulation step         Convergence     Electron number  ETRS Iterations
 RTBSE|             344     0.12932535E-007     0.10000000E+002                6
 RTBSE| Simulation step         Convergence     Electron number  ETRS Iterations
 RTBSE|             345     0.13370753E-007     0.10000000E+002                6
 RTBSE| Simulation step         Convergence     Electron number  ETRS Iterations
 RTBSE|             346     0.13634321E-007     0.10000000E+002                6
 RTBSE| Simulation step         Convergence     Electron number  ETRS Iterations
 RTBSE|             347     0.13688259E-007     0.10000000E+002                6
 RTBSE| Simulation step         Convergence     Electron number  ETRS Iterations
 RTBSE|             348     0.13683683E-007     0.10000000E+002                6
 RTBSE| Simulation step         Convergence     Electron number  ETRS Iterations
 RTBSE|             349     0.14044077E-007     0.10000000E+002                6
 RTBSE| Simulation step         Convergence     Electron number  ETRS Iterations
 RTBSE|             350     0.14204238E-007     0.10000000E+002                6
 RTBSE| Simulation step         Convergence     Electron number  ETRS Iterations
 RTBSE|             351     0.96091227E-007     0.10000000E+002                5
 RTBSE| Simulation step         Convergence     Electron number  ETRS Iterations
 RTBSE|             352     0.89573122E-007     0.10000000E+002                5
 RTBSE| Simulation step         Convergence     Electron number  ETRS Iterations
 RTBSE|             353     0.81632128E-007     0.10000000E+002                5
 RTBSE| Simulation step         Convergence     Electron number  ETRS Iterations
 RTBSE|             354     0.72359226E-007     0.10000000E+002                5
 RTBSE| Simulation step         Convergence     Electron number  ETRS Iterations
 RTBSE|             355     0.61831064E-007     0.10000000E+002                5
 RTBSE| Simulation step         Convergence     Electron number  ETRS Iterations
 RTBSE|             356     0.55673805E-007     0.10000000E+002                5
 RTBSE| Simulation step         Convergence     Electron number  ETRS Iterations
 RTBSE|             357     0.50676080E-007     0.10000000E+002                5
 RTBSE| Simulation step         Convergence     Electron number  ETRS Iterations
 RTBSE|             358     0.45462929E-007     0.10000000E+002                5
 RTBSE| Simulation step         Convergence     Electron number  ETRS Iterations
 RTBSE|             359     0.40811405E-007     0.10000000E+002                5
 RTBSE| Simulation step         Convergence     Electron number  ETRS Iterations
 RTBSE|             360     0.35491656E-007     0.10000000E+002                5
 RTBSE| Simulation step         Convergence     Electron number  ETRS Iterations
 RTBSE|             361     0.29796115E-007     0.10000000E+002                5
 RTBSE| Simulation step         Convergence     Electron number  ETRS Iterations
 RTBSE|             362     0.35787945E-007     0.10000000E+002                5
 RTBSE| Simulation step         Convergence     Electron number  ETRS Iterations
 RTBSE|             363     0.50726402E-007     0.10000000E+002                5
 RTBSE| Simulation step         Convergence     Electron number  ETRS Iterations
 RTBSE|             364     0.65383071E-007     0.10000000E+002                5
 RTBSE| Simulation step         Convergence     Electron number  ETRS Iterations
 RTBSE|             365     0.79367446E-007     0.10000000E+002                5
 RTBSE| Simulation step         Convergence     Electron number  ETRS Iterations
 RTBSE|             366     0.92483469E-007     0.10000000E+002                5
 RTBSE| Simulation step         Convergence     Electron number  ETRS Iterations
 RTBSE|             367     0.13410707E-007     0.10000000E+002                6
 RTBSE| Simulation step         Convergence     Electron number  ETRS Iterations
 RTBSE|             368     0.14659128E-007     0.10000000E+002                6
 RTBSE| Simulation step         Convergence     Electron number  ETRS Iterations
 RTBSE|             369     0.15701997E-007     0.10000000E+002                6
 RTBSE| Simulation step         Convergence     Electron number  ETRS Iterations
 RTBSE|             370     0.16505514E-007     0.10000000E+002                6
 RTBSE| Simulation step         Convergence     Electron number  ETRS Iterations
 RTBSE|             371     0.17094971E-007     0.10000000E+002                6
 RTBSE| Simulation step         Convergence     Electron number  ETRS Iterations
 RTBSE|             372     0.17398481E-007     0.10000000E+002                6
 RTBSE| Simulation step         Convergence     Electron number  ETRS Iterations
 RTBSE|             373     0.17461236E-007     0.10000000E+002                6
 RTBSE| Simulation step         Convergence     Electron number  ETRS Iterations
 RTBSE|             374     0.18085673E-007     0.10000000E+002                6
 RTBSE| Simulation step         Convergence     Electron number  ETRS Iterations
 RTBSE|             375     0.18424774E-007     0.10000000E+002                6
 RTBSE| Simulation step         Convergence     Electron number  ETRS Iterations
 RTBSE|             376     0.18471172E-007     0.10000000E+002                6
 RTBSE| Simulation step         Convergence     Electron number  ETRS Iterations
 RTBSE|             377     0.18236132E-007     0.10000000E+002                6
 RTBSE| Simulation step         Convergence     Electron number  ETRS Iterations
 RTBSE|             378     0.17703336E-007     0.10000000E+002                6
 RTBSE| Simulation step         Convergence     Electron number  ETRS Iterations
 RTBSE|             379     0.99835093E-007     0.10000000E+002                5
 RTBSE| Simulation step         Convergence     Electron number  ETRS Iterations
 RTBSE|             380     0.86596334E-007     0.10000000E+002                5
 RTBSE| Simulation step         Convergence     Electron number  ETRS Iterations
 RTBSE|             381     0.72270275E-007     0.10000000E+002                5
 RTBSE| Simulation step         Convergence     Electron number  ETRS Iterations
 RTBSE|             382     0.65817437E-007     0.10000000E+002                5
 RTBSE| Simulation step         Convergence     Electron number  ETRS Iterations
 RTBSE|             383     0.58822640E-007     0.10000000E+002                5
 RTBSE| Simulation step         Convergence     Electron number  ETRS Iterations
 RTBSE|             384     0.51652934E-007     0.10000000E+002                5
 RTBSE| Simulation step         Convergence     Electron number  ETRS Iterations
 RTBSE|             385     0.45036720E-007     0.10000000E+002                5
 RTBSE| Simulation step         Convergence     Electron number  ETRS Iterations
 RTBSE|             386     0.37772186E-007     0.10000000E+002                5
 RTBSE| Simulation step         Convergence     Electron number  ETRS Iterations
 RTBSE|             387     0.31835749E-007     0.10000000E+002                5
 RTBSE| Simulation step         Convergence     Electron number  ETRS Iterations
 RTBSE|             388     0.48529192E-007     0.10000000E+002                5
 RTBSE| Simulation step         Convergence     Electron number  ETRS Iterations
 RTBSE|             389     0.64542492E-007     0.10000000E+002                5
 RTBSE| Simulation step         Convergence     Electron number  ETRS Iterations
 RTBSE|             390     0.79652587E-007     0.10000000E+002                5
 RTBSE| Simulation step         Convergence     Electron number  ETRS Iterations
 RTBSE|             391     0.93593735E-007     0.10000000E+002                5
 RTBSE| Simulation step         Convergence     Electron number  ETRS Iterations
 RTBSE|             392     0.13945186E-007     0.10000000E+002                6
 RTBSE| Simulation step         Convergence     Electron number  ETRS Iterations
 RTBSE|             393     0.15295391E-007     0.10000000E+002                6
 RTBSE| Simulation step         Convergence     Electron number  ETRS Iterations
 RTBSE|             394     0.16465665E-007     0.10000000E+002                6
 RTBSE| Simulation step         Convergence     Electron number  ETRS Iterations
 RTBSE|             395     0.17401583E-007     0.10000000E+002                6
 RTBSE| Simulation step         Convergence     Electron number  ETRS Iterations
 RTBSE|             396     0.18093048E-007     0.10000000E+002                6
 RTBSE| Simulation step         Convergence     Electron number  ETRS Iterations
 RTBSE|             397     0.18546358E-007     0.10000000E+002                6
 RTBSE| Simulation step         Convergence     Electron number  ETRS Iterations
 RTBSE|             398     0.18743451E-007     0.10000000E+002                6
 RTBSE| Simulation step         Convergence     Electron number  ETRS Iterations
 RTBSE|             399     0.18685744E-007     0.10000000E+002                6
 RTBSE| Simulation step         Convergence     Electron number  ETRS Iterations
 RTBSE|             400     0.19154412E-007     0.10000000E+002                6
 RTBSE| Simulation step         Convergence     Electron number  ETRS Iterations
 RTBSE|             401     0.19498653E-007     0.10000000E+002                6
 RTBSE| Simulation step         Convergence     Electron number  ETRS Iterations
 RTBSE|             402     0.19557742E-007     0.10000000E+002                6
 RTBSE| Simulation step         Convergence     Electron number  ETRS Iterations
 RTBSE|             403     0.19354593E-007     0.10000000E+002                6
 RTBSE| Simulation step         Convergence     Electron number  ETRS Iterations
 RTBSE|             404     0.18862661E-007     0.10000000E+002                6
 RTBSE| Simulation step         Convergence     Electron number  ETRS Iterations
 RTBSE|             405     0.18087014E-007     0.10000000E+002                6
 RTBSE| Simulation step         Convergence     Electron number  ETRS Iterations
 RTBSE|             406     0.91625112E-007     0.10000000E+002                5
 RTBSE| Simulation step         Convergence     Electron number  ETRS Iterations
 RTBSE|             407     0.79021792E-007     0.10000000E+002                5
 RTBSE| Simulation step         Convergence     Electron number  ETRS Iterations
 RTBSE|             408     0.72268684E-007     0.10000000E+002                5
 RTBSE| Simulation step         Convergence     Electron number  ETRS Iterations
 RTBSE|             409     0.64728560E-007     0.10000000E+002                5
 RTBSE| Simulation step         Convergence     Electron number  ETRS Iterations
 RTBSE|             410     0.57836841E-007     0.10000000E+002                5
 RTBSE| Simulation step         Convergence     Electron number  ETRS Iterations
 RTBSE|             411     0.50582443E-007     0.10000000E+002                5
 RTBSE| Simulation step         Convergence     Electron number  ETRS Iterations
 RTBSE|             412     0.42495501E-007     0.10000000E+002                5
 RTBSE| Simulation step         Convergence     Electron number  ETRS Iterations
 RTBSE|             413     0.40226635E-007     0.10000000E+002                5
 RTBSE| Simulation step         Convergence     Electron number  ETRS Iterations
 RTBSE|             414     0.60306162E-007     0.10000000E+002                5
 RTBSE| Simulation step         Convergence     Electron number  ETRS Iterations
 RTBSE|             415     0.80759359E-007     0.10000000E+002                5
 RTBSE| Simulation step         Convergence     Electron number  ETRS Iterations
 RTBSE|             416     0.13371723E-007     0.10000000E+002                6
 RTBSE| Simulation step         Convergence     Electron number  ETRS Iterations
 RTBSE|             417     0.15528567E-007     0.10000000E+002                6
 RTBSE| Simulation step         Convergence     Electron number  ETRS Iterations
 RTBSE|             418     0.17514932E-007     0.10000000E+002                6
 RTBSE| Simulation step         Convergence     Electron number  ETRS Iterations
 RTBSE|             419     0.19268699E-007     0.10000000E+002                6
 RTBSE| Simulation step         Convergence     Electron number  ETRS Iterations
 RTBSE|             420     0.20788264E-007     0.10000000E+002                6
 RTBSE| Simulation step         Convergence     Electron number  ETRS Iterations
 RTBSE|             421     0.21969334E-007     0.10000000E+002                6
 RTBSE| Simulation step         Convergence     Electron number  ETRS Iterations
 RTBSE|             422     0.22833555E-007     0.10000000E+002                6
 RTBSE| Simulation step         Convergence     Electron number  ETRS Iterations
 RTBSE|             423     0.23361624E-007     0.10000000E+002                6
 RTBSE| Simulation step         Convergence     Electron number  ETRS Iterations
 RTBSE|             424     0.23494437E-007     0.10000000E+002                6
 RTBSE| Simulation step         Convergence     Electron number  ETRS Iterations
 RTBSE|             425     0.24215506E-007     0.10000000E+002                6
 RTBSE| Simulation step         Convergence     Electron number  ETRS Iterations
 RTBSE|             426     0.24726605E-007     0.10000000E+002                6
 RTBSE| Simulation step         Convergence     Electron number  ETRS Iterations
 RTBSE|             427     0.24838201E-007     0.10000000E+002                6
 RTBSE| Simulation step         Convergence     Electron number  ETRS Iterations
 RTBSE|             428     0.24554595E-007     0.10000000E+002                6
 RTBSE| Simulation step         Convergence     Electron number  ETRS Iterations
 RTBSE|             429     0.23864125E-007     0.10000000E+002                6
 RTBSE| Simulation step         Convergence     Electron number  ETRS Iterations
 RTBSE|             430     0.22792204E-007     0.10000000E+002                6
 RTBSE| Simulation step         Convergence     Electron number  ETRS Iterations
 RTBSE|             431     0.21367874E-007     0.10000000E+002                6
 RTBSE| Simulation step         Convergence     Electron number  ETRS Iterations
 RTBSE|             432     0.19618752E-007     0.10000000E+002                6
 RTBSE| Simulation step         Convergence     Electron number  ETRS Iterations
 RTBSE|             433     0.88801746E-007     0.10000000E+002                5
 RTBSE| Simulation step         Convergence     Electron number  ETRS Iterations
 RTBSE|             434     0.79411359E-007     0.10000000E+002                5
 RTBSE| Simulation step         Convergence     Electron number  ETRS Iterations
 RTBSE|             435     0.69531264E-007     0.10000000E+002                5
 RTBSE| Simulation step         Convergence     Electron number  ETRS Iterations
 RTBSE|             436     0.60263348E-007     0.10000000E+002                5
 RTBSE| Simulation step         Convergence     Electron number  ETRS Iterations
 RTBSE|             437     0.50708587E-007     0.10000000E+002                5
 RTBSE| Simulation step         Convergence     Electron number  ETRS Iterations
 RTBSE|             438     0.41614629E-007     0.10000000E+002                5
 RTBSE| Simulation step         Convergence     Electron number  ETRS Iterations
 RTBSE|             439     0.54649003E-007     0.10000000E+002                5
 RTBSE| Simulation step         Convergence     Electron number  ETRS Iterations
 RTBSE|             440     0.75300071E-007     0.10000000E+002                5
 RTBSE| Simulation step         Convergence     Electron number  ETRS Iterations
 RTBSE|             441     0.94772375E-007     0.10000000E+002                5
 RTBSE| Simulation step         Convergence     Electron number  ETRS Iterations
 RTBSE|             442     0.14972214E-007     0.10000000E+002                6
 RTBSE| Simulation step         Convergence     Electron number  ETRS Iterations
 RTBSE|             443     0.16961676E-007     0.10000000E+002                6
 RTBSE| Simulation step         Convergence     Electron number  ETRS Iterations
 RTBSE|             444     0.18749812E-007     0.10000000E+002                6
 RTBSE| Simulation step         Convergence     Electron number  ETRS Iterations
 RTBSE|             445     0.20259758E-007     0.10000000E+002                6
 RTBSE| Simulation step         Convergence     Electron number  ETRS Iterations
 RTBSE|             446     0.21522479E-007     0.10000000E+002                6
 RTBSE| Simulation step         Convergence     Electron number  ETRS Iterations
 RTBSE|             447     0.22450499E-007     0.10000000E+002                6
 RTBSE| Simulation step         Convergence     Electron number  ETRS Iterations
 RTBSE|             448     0.23128059E-007     0.10000000E+002                6
 RTBSE| Simulation step         Convergence     Electron number  ETRS Iterations
 RTBSE|             449     0.23449859E-007     0.10000000E+002                6
 RTBSE| Simulation step         Convergence     Electron number  ETRS Iterations
 RTBSE|             450     0.23464015E-007     0.10000000E+002                6
 RTBSE| Simulation step         Convergence     Electron number  ETRS Iterations
 RTBSE|             451     0.23850719E-007     0.10000000E+002                6
 RTBSE| Simulation step         Convergence     Electron number  ETRS Iterations
 RTBSE|             452     0.24325486E-007     0.10000000E+002                6
 RTBSE| Simulation step         Convergence     Electron number  ETRS Iterations
 RTBSE|             453     0.24489903E-007     0.10000000E+002                6
 RTBSE| Simulation step         Convergence     Electron number  ETRS Iterations
 RTBSE|             454     0.24326332E-007     0.10000000E+002                6
 RTBSE| Simulation step         Convergence     Electron number  ETRS Iterations
 RTBSE|             455     0.23810319E-007     0.10000000E+002                6
 RTBSE| Simulation step         Convergence     Electron number  ETRS Iterations
 RTBSE|             456     0.22946490E-007     0.10000000E+002                6
 RTBSE| Simulation step         Convergence     Electron number  ETRS Iterations
 RTBSE|             457     0.21710042E-007     0.10000000E+002                6
 RTBSE| Simulation step         Convergence     Electron number  ETRS Iterations
 RTBSE|             458     0.20155110E-007     0.10000000E+002                6
 RTBSE| Simulation step         Convergence     Electron number  ETRS Iterations
 RTBSE|             459     0.92691203E-007     0.10000000E+002                5
 RTBSE| Simulation step         Convergence     Electron number  ETRS Iterations
 RTBSE|             460     0.83378780E-007     0.10000000E+002                5
 RTBSE| Simulation step         Convergence     Electron number  ETRS Iterations
 RTBSE|             461     0.73816989E-007     0.10000000E+002                5
 RTBSE| Simulation step         Convergence     Electron number  ETRS Iterations
 RTBSE|             462     0.64922936E-007     0.10000000E+002                5
 RTBSE| Simulation step         Convergence     Electron number  ETRS Iterations
 RTBSE|             463     0.54902979E-007     0.10000000E+002                5
 RTBSE| Simulation step         Convergence     Electron number  ETRS Iterations
 RTBSE|             464     0.46490663E-007     0.10000000E+002                5
 RTBSE| Simulation step         Convergence     Electron number  ETRS Iterations
 RTBSE|             465     0.65612964E-007     0.10000000E+002                5
 RTBSE| Simulation step         Convergence     Electron number  ETRS Iterations
 RTBSE|             466     0.90962185E-007     0.10000000E+002                5
 RTBSE| Simulation step         Convergence     Electron number  ETRS Iterations
 RTBSE|             467     0.15576013E-007     0.10000000E+002                6
 RTBSE| Simulation step         Convergence     Electron number  ETRS Iterations
 RTBSE|             468     0.18336616E-007     0.10000000E+002                6
 RTBSE| Simulation step         Convergence     Electron number  ETRS Iterations
 RTBSE|             469     0.20898105E-007     0.10000000E+002                6
 RTBSE| Simulation step         Convergence     Electron number  ETRS Iterations
 RTBSE|             470     0.23188076E-007     0.10000000E+002                6
 RTBSE| Simulation step         Convergence     Electron number  ETRS Iterations
 RTBSE|             471     0.25153112E-007     0.10000000E+002                6
 RTBSE| Simulation step         Convergence     Electron number  ETRS Iterations
 RTBSE|             472     0.26729689E-007     0.10000000E+002                6
 RTBSE| Simulation step         Convergence     Electron number  ETRS Iterations
 RTBSE|             473     0.27909779E-007     0.10000000E+002                6
 RTBSE| Simulation step         Convergence     Electron number  ETRS Iterations
 RTBSE|             474     0.28665308E-007     0.10000000E+002                6
 RTBSE| Simulation step         Convergence     Electron number  ETRS Iterations
 RTBSE|             475     0.28926258E-007     0.10000000E+002                6
 RTBSE| Simulation step         Convergence     Electron number  ETRS Iterations
 RTBSE|             476     0.29682843E-007     0.10000000E+002                6
 RTBSE| Simulation step         Convergence     Electron number  ETRS Iterations
 RTBSE|             477     0.30341653E-007     0.10000000E+002                6
 RTBSE| Simulation step         Convergence     Electron number  ETRS Iterations
 RTBSE|             478     0.30498692E-007     0.10000000E+002                6
 RTBSE| Simulation step         Convergence     Electron number  ETRS Iterations
 RTBSE|             479     0.30158614E-007     0.10000000E+002                6
 RTBSE| Simulation step         Convergence     Electron number  ETRS Iterations
 RTBSE|             480     0.29328014E-007     0.10000000E+002                6
 RTBSE| Simulation step         Convergence     Electron number  ETRS Iterations
 RTBSE|             481     0.28041294E-007     0.10000000E+002                6
 RTBSE| Simulation step         Convergence     Electron number  ETRS Iterations
 RTBSE|             482     0.26320460E-007     0.10000000E+002                6
 RTBSE| Simulation step         Convergence     Electron number  ETRS Iterations
 RTBSE|             483     0.24198170E-007     0.10000000E+002                6
 RTBSE| Simulation step         Convergence     Electron number  ETRS Iterations
 RTBSE|             484     0.21708916E-007     0.10000000E+002                6
 RTBSE| Simulation step         Convergence     Electron number  ETRS Iterations
 RTBSE|             485     0.97578179E-007     0.10000000E+002                5
 RTBSE| Simulation step         Convergence     Electron number  ETRS Iterations
 RTBSE|             486     0.85533543E-007     0.10000000E+002                5
 RTBSE| Simulation step         Convergence     Electron number  ETRS Iterations
 RTBSE|             487     0.73413392E-007     0.10000000E+002                5
 RTBSE| Simulation step         Convergence     Electron number  ETRS Iterations
 RTBSE|             488     0.61980500E-007     0.10000000E+002                5
 RTBSE| Simulation step         Convergence     Electron number  ETRS Iterations
 RTBSE|             489     0.50378418E-007     0.10000000E+002                5
 RTBSE| Simulation step         Convergence     Electron number  ETRS Iterations
 RTBSE|             490     0.56282863E-007     0.10000000E+002                5
 RTBSE| Simulation step         Convergence     Electron number  ETRS Iterations
 RTBSE|             491     0.80547977E-007     0.10000000E+002                5
 RTBSE| Simulation step         Convergence     Electron number  ETRS Iterations
 RTBSE|             492     0.13992102E-007     0.10000000E+002                6
 RTBSE| Simulation step         Convergence     Electron number  ETRS Iterations
 RTBSE|             493     0.16548848E-007     0.10000000E+002                6
 RTBSE| Simulation step         Convergence     Electron number  ETRS Iterations
 RTBSE|             494     0.18919864E-007     0.10000000E+002                6
 RTBSE| Simulation step         Convergence     Electron number  ETRS Iterations
 RTBSE|             495     0.21050732E-007     0.10000000E+002                6
 RTBSE| Simulation step         Convergence     Electron number  ETRS Iterations
 RTBSE|             496     0.22884464E-007     0.10000000E+002                6
 RTBSE| Simulation step         Convergence     Electron number  ETRS Iterations
 RTBSE|             497     0.24406922E-007     0.10000000E+002                6
 RTBSE| Simulation step         Convergence     Electron number  ETRS Iterations
 RTBSE|             498     0.25619449E-007     0.10000000E+002                6
 RTBSE| Simulation step         Convergence     Electron number  ETRS Iterations
 RTBSE|             499     0.26488525E-007     0.10000000E+002                6
 RTBSE| Simulation step         Convergence     Electron number  ETRS Iterations
 RTBSE|             500     0.27005633E-007     0.10000000E+002                6
 RTBSE| Simulation step         Convergence     Electron number  ETRS Iterations
 RTBSE|             501     0.27177588E-007     0.10000000E+002                6
 RTBSE| Simulation step         Convergence     Electron number  ETRS Iterations
 RTBSE|             502     0.27349435E-007     0.10000000E+002                6
 RTBSE| Simulation step         Convergence     Electron number  ETRS Iterations
 RTBSE|             503     0.28043416E-007     0.10000000E+002                6
 RTBSE| Simulation step         Convergence     Electron number  ETRS Iterations
 RTBSE|             504     0.28374402E-007     0.10000000E+002                6
 RTBSE| Simulation step         Convergence     Electron number  ETRS Iterations
 RTBSE|             505     0.28342671E-007     0.10000000E+002                6
 RTBSE| Simulation step         Convergence     Electron number  ETRS Iterations
 RTBSE|             506     0.27896257E-007     0.10000000E+002                6
 RTBSE| Simulation step         Convergence     Electron number  ETRS Iterations
 RTBSE|             507     0.27066579E-007     0.10000000E+002                6
 RTBSE| Simulation step         Convergence     Electron number  ETRS Iterations
 RTBSE|             508     0.25822120E-007     0.10000000E+002                6
 RTBSE| Simulation step         Convergence     Electron number  ETRS Iterations
 RTBSE|             509     0.24151516E-007     0.10000000E+002                6
 RTBSE| Simulation step         Convergence     Electron number  ETRS Iterations
 RTBSE|             510     0.22071676E-007     0.10000000E+002                6
 RTBSE| Simulation step         Convergence     Electron number  ETRS Iterations
 RTBSE|             511     0.19585942E-007     0.10000000E+002                6
 RTBSE| Simulation step         Convergence     Electron number  ETRS Iterations
 RTBSE|             512     0.89318674E-007     0.10000000E+002                5
 RTBSE| Simulation step         Convergence     Electron number  ETRS Iterations
 RTBSE|             513     0.78159074E-007     0.10000000E+002                5
 RTBSE| Simulation step         Convergence     Electron number  ETRS Iterations
 RTBSE|             514     0.66727972E-007     0.10000000E+002                5
 RTBSE| Simulation step         Convergence     Electron number  ETRS Iterations
 RTBSE|             515     0.55828707E-007     0.10000000E+002                5
 RTBSE| Simulation step         Convergence     Electron number  ETRS Iterations
 RTBSE|             516     0.65544637E-007     0.10000000E+002                5
 RTBSE| Simulation step         Convergence     Electron number  ETRS Iterations
 RTBSE|             517     0.94826182E-007     0.10000000E+002                5
 RTBSE| Simulation step         Convergence     Electron number  ETRS Iterations
 RTBSE|             518     0.16907811E-007     0.10000000E+002                6
 RTBSE| Simulation step         Convergence     Electron number  ETRS Iterations
 RTBSE|             519     0.20204665E-007     0.10000000E+002                6
 RTBSE| Simulation step         Convergence     Electron number  ETRS Iterations
 RTBSE|             520     0.23280529E-007     0.10000000E+002                6
 RTBSE| Simulation step         Convergence     Electron number  ETRS Iterations
 RTBSE|             521     0.26073849E-007     0.10000000E+002                6
 RTBSE| Simulation step         Convergence     Electron number  ETRS Iterations
 RTBSE|             522     0.28467908E-007     0.10000000E+002                6
 RTBSE| Simulation step         Convergence     Electron number  ETRS Iterations
 RTBSE|             523     0.30440459E-007     0.10000000E+002                6
 RTBSE| Simulation step         Convergence     Electron number  ETRS Iterations
 RTBSE|             524     0.31913125E-007     0.10000000E+002                6
 RTBSE| Simulation step         Convergence     Electron number  ETRS Iterations
 RTBSE|             525     0.32896452E-007     0.10000000E+002                6
 RTBSE| Simulation step         Convergence     Electron number  ETRS Iterations
 RTBSE|             526     0.33295626E-007     0.10000000E+002                6
 RTBSE| Simulation step         Convergence     Electron number  ETRS Iterations
 RTBSE|             527     0.33984696E-007     0.10000000E+002                6
 RTBSE| Simulation step         Convergence     Electron number  ETRS Iterations
 RTBSE|             528     0.34808833E-007     0.10000000E+002                6
 RTBSE| Simulation step         Convergence     Electron number  ETRS Iterations
 RTBSE|             529     0.35051701E-007     0.10000000E+002                6
 RTBSE| Simulation step         Convergence     Electron number  ETRS Iterations
 RTBSE|             530     0.34702174E-007     0.10000000E+002                6
 RTBSE| Simulation step         Convergence     Electron number  ETRS Iterations
 RTBSE|             531     0.33777295E-007     0.10000000E+002                6
 RTBSE| Simulation step         Convergence     Electron number  ETRS Iterations
 RTBSE|             532     0.32327515E-007     0.10000000E+002                6
 RTBSE| Simulation step         Convergence     Electron number  ETRS Iterations
 RTBSE|             533     0.30357901E-007     0.10000000E+002                6
 RTBSE| Simulation step         Convergence     Electron number  ETRS Iterations
 RTBSE|             534     0.27942508E-007     0.10000000E+002                6
 RTBSE| Simulation step         Convergence     Electron number  ETRS Iterations
 RTBSE|             535     0.25135761E-007     0.10000000E+002                6
 RTBSE| Simulation step         Convergence     Electron number  ETRS Iterations
 RTBSE|             536     0.21993664E-007     0.10000000E+002                6
 RTBSE| Simulation step         Convergence     Electron number  ETRS Iterations
 RTBSE|             537     0.98756576E-007     0.10000000E+002                5
 RTBSE| Simulation step         Convergence     Electron number  ETRS Iterations
 RTBSE|             538     0.84439620E-007     0.10000000E+002                5
 RTBSE| Simulation step         Convergence     Electron number  ETRS Iterations
 RTBSE|             539     0.71150886E-007     0.10000000E+002                5
 RTBSE| Simulation step         Convergence     Electron number  ETRS Iterations
 RTBSE|             540     0.57739782E-007     0.10000000E+002                5
 RTBSE| Simulation step         Convergence     Electron number  ETRS Iterations
 RTBSE|             541     0.54728124E-007     0.10000000E+002                5
 RTBSE| Simulation step         Convergence     Electron number  ETRS Iterations
 RTBSE|             542     0.81757845E-007     0.10000000E+002                5
 RTBSE| Simulation step         Convergence     Electron number  ETRS Iterations
 RTBSE|             543     0.14554499E-007     0.10000000E+002                6
 RTBSE| Simulation step         Convergence     Electron number  ETRS Iterations
 RTBSE|             544     0.17435269E-007     0.10000000E+002                6
 RTBSE| Simulation step         Convergence     Electron number  ETRS Iterations
 RTBSE|             545     0.20114702E-007     0.10000000E+002                6
 RTBSE| Simulation step         Convergence     Electron number  ETRS Iterations
 RTBSE|             546     0.22501765E-007     0.10000000E+002                6
 RTBSE| Simulation step         Convergence     Electron number  ETRS Iterations
 RTBSE|             547     0.24593418E-007     0.10000000E+002                6
 RTBSE| Simulation step         Convergence     Electron number  ETRS Iterations
 RTBSE|             548     0.26361276E-007     0.10000000E+002                6
 RTBSE| Simulation step         Convergence     Electron number  ETRS Iterations
 RTBSE|             549     0.27790673E-007     0.10000000E+002                6
 RTBSE| Simulation step         Convergence     Electron number  ETRS Iterations
 RTBSE|             550     0.28844764E-007     0.10000000E+002                6
 RTBSE| Simulation step         Convergence     Electron number  ETRS Iterations
 RTBSE|             551     0.29526115E-007     0.10000000E+002                6
 RTBSE| Simulation step         Convergence     Electron number  ETRS Iterations
 RTBSE|             552     0.29846690E-007     0.10000000E+002                6
 RTBSE| Simulation step         Convergence     Electron number  ETRS Iterations
 RTBSE|             553     0.29782333E-007     0.10000000E+002                6
 RTBSE| Simulation step         Convergence     Electron number  ETRS Iterations
 RTBSE|             554     0.30667323E-007     0.10000000E+002                6
 RTBSE| Simulation step         Convergence     Electron number  ETRS Iterations
 RTBSE|             555     0.31164159E-007     0.10000000E+002                6
 RTBSE| Simulation step         Convergence     Electron number  ETRS Iterations
 RTBSE|             556     0.31261545E-007     0.10000000E+002                6
 RTBSE| Simulation step         Convergence     Electron number  ETRS Iterations
 RTBSE|             557     0.30932099E-007     0.10000000E+002                6
 RTBSE| Simulation step         Convergence     Electron number  ETRS Iterations
 RTBSE|             558     0.30151210E-007     0.10000000E+002                6
 RTBSE| Simulation step         Convergence     Electron number  ETRS Iterations
 RTBSE|             559     0.28896325E-007     0.10000000E+002                6
 RTBSE| Simulation step         Convergence     Electron number  ETRS Iterations
 RTBSE|             560     0.27177850E-007     0.10000000E+002                6
 RTBSE| Simulation step         Convergence     Electron number  ETRS Iterations
 RTBSE|             561     0.25009252E-007     0.10000000E+002                6
 RTBSE| Simulation step         Convergence     Electron number  ETRS Iterations
 RTBSE|             562     0.22368619E-007     0.10000000E+002                6
 RTBSE| Simulation step         Convergence     Electron number  ETRS Iterations
 RTBSE|             563     0.19300797E-007     0.10000000E+002                6
 RTBSE| Simulation step         Convergence     Electron number  ETRS Iterations
 RTBSE|             564     0.88880171E-007     0.10000000E+002                5
 RTBSE| Simulation step         Convergence     Electron number  ETRS Iterations
 RTBSE|             565     0.76020186E-007     0.10000000E+002                5
 RTBSE| Simulation step         Convergence     Electron number  ETRS Iterations
 RTBSE|             566     0.63424998E-007     0.10000000E+002                5
 RTBSE| Simulation step         Convergence     Electron number  ETRS Iterations
 RTBSE|             567     0.63863029E-007     0.10000000E+002                5
 RTBSE| Simulation step         Convergence     Electron number  ETRS Iterations
 RTBSE|             568     0.96216865E-007     0.10000000E+002                5
 RTBSE| Simulation step         Convergence     Electron number  ETRS Iterations
 RTBSE|             569     0.17733379E-007     0.10000000E+002                6
 RTBSE| Simulation step         Convergence     Electron number  ETRS Iterations
 RTBSE|             570     0.21449206E-007     0.10000000E+002                6
 RTBSE| Simulation step         Convergence     Electron number  ETRS Iterations
 RTBSE|             571     0.24908069E-007     0.10000000E+002                6
 RTBSE| Simulation step         Convergence     Electron number  ETRS Iterations
 RTBSE|             572     0.28075290E-007     0.10000000E+002                6
 RTBSE| Simulation step         Convergence     Electron number  ETRS Iterations
 RTBSE|             573     0.30771065E-007     0.10000000E+002                6
 RTBSE| Simulation step         Convergence     Electron number  ETRS Iterations
 RTBSE|             574     0.32996851E-007     0.10000000E+002                6
 RTBSE| Simulation step         Convergence     Electron number  ETRS Iterations
 RTBSE|             575     0.34699361E-007     0.10000000E+002                6
 RTBSE| Simulation step         Convergence     Electron number  ETRS Iterations
 RTBSE|             576     0.35790437E-007     0.10000000E+002                6
 RTBSE| Simulation step         Convergence     Electron number  ETRS Iterations
 RTBSE|             577     0.36266757E-007     0.10000000E+002                6
 RTBSE| Simulation step         Convergence     Electron number  ETRS Iterations
 RTBSE|             578     0.36910023E-007     0.10000000E+002                6
 RTBSE| Simulation step         Convergence     Electron number  ETRS Iterations
 RTBSE|             579     0.37797843E-007     0.10000000E+002                6
 RTBSE| Simulation step         Convergence     Electron number  ETRS Iterations
 RTBSE|             580     0.38038453E-007     0.10000000E+002                6
 RTBSE| Simulation step         Convergence     Electron number  ETRS Iterations
 RTBSE|             581     0.37622919E-007     0.10000000E+002                6
 RTBSE| Simulation step         Convergence     Electron number  ETRS Iterations
 RTBSE|             582     0.36579200E-007     0.10000000E+002                6
 RTBSE| Simulation step         Convergence     Electron number  ETRS Iterations
 RTBSE|             583     0.34952846E-007     0.10000000E+002                6
 RTBSE| Simulation step         Convergence     Electron number  ETRS Iterations
 RTBSE|             584     0.32812049E-007     0.10000000E+002                6
 RTBSE| Simulation step         Convergence     Electron number  ETRS Iterations
 RTBSE|             585     0.30182876E-007     0.10000000E+002                6
 RTBSE| Simulation step         Convergence     Electron number  ETRS Iterations
 RTBSE|             586     0.27138318E-007     0.10000000E+002                6
 RTBSE| Simulation step         Convergence     Electron number  ETRS Iterations
 RTBSE|             587     0.23768610E-007     0.10000000E+002                6
 RTBSE| Simulation step         Convergence     Electron number  ETRS Iterations
 RTBSE|             588     0.20137933E-007     0.10000000E+002                6
 RTBSE| Simulation step         Convergence     Electron number  ETRS Iterations
 RTBSE|             589     0.91084051E-007     0.10000000E+002                5
 RTBSE| Simulation step         Convergence     Electron number  ETRS Iterations
 RTBSE|             590     0.76594207E-007     0.10000000E+002                5
 RTBSE| Simulation step         Convergence     Electron number  ETRS Iterations
 RTBSE|             591     0.62375573E-007     0.10000000E+002                5
 RTBSE| Simulation step         Convergence     Electron number  ETRS Iterations
 RTBSE|             592     0.51673888E-007     0.10000000E+002                5
 RTBSE| Simulation step         Convergence     Electron number  ETRS Iterations
 RTBSE|             593     0.79484621E-007     0.10000000E+002                5
 RTBSE| Simulation step         Convergence     Electron number  ETRS Iterations
 RTBSE|             594     0.14471432E-007     0.10000000E+002                6
 RTBSE| Simulation step         Convergence     Electron number  ETRS Iterations
 RTBSE|             595     0.17489234E-007     0.10000000E+002                6
 RTBSE| Simulation step         Convergence     Electron number  ETRS Iterations
 RTBSE|             596     0.20309835E-007     0.10000000E+002                6
 RTBSE| Simulation step         Convergence     Electron number  ETRS Iterations
 RTBSE|             597     0.22884951E-007     0.10000000E+002                6
 RTBSE| Simulation step         Convergence     Electron number  ETRS Iterations
 RTBSE|             598     0.25184151E-007     0.10000000E+002                6
 RTBSE| Simulation step         Convergence     Electron number  ETRS Iterations
 RTBSE|             599     0.27139307E-007     0.10000000E+002                6
 RTBSE| Simulation step         Convergence     Electron number  ETRS Iterations
 RTBSE|             600     0.28758380E-007     0.10000000E+002                6
 RTBSE| Simulation step         Convergence     Electron number  ETRS Iterations
 RTBSE|             601     0.29999758E-007     0.10000000E+002                6
 RTBSE| Simulation step         Convergence     Electron number  ETRS Iterations
 RTBSE|             602     0.30892294E-007     0.10000000E+002                6
 RTBSE| Simulation step         Convergence     Electron number  ETRS Iterations
 RTBSE|             603     0.31378158E-007     0.10000000E+002                6
 RTBSE| Simulation step         Convergence     Electron number  ETRS Iterations
 RTBSE|             604     0.31457163E-007     0.10000000E+002                6
 RTBSE| Simulation step         Convergence     Electron number  ETRS Iterations
 RTBSE|             605     0.32167523E-007     0.10000000E+002                6
 RTBSE| Simulation step         Convergence     Electron number  ETRS Iterations
 RTBSE|             606     0.32845957E-007     0.10000000E+002                6
 RTBSE| Simulation step         Convergence     Electron number  ETRS Iterations
 RTBSE|             607     0.33086099E-007     0.10000000E+002                6
 RTBSE| Simulation step         Convergence     Electron number  ETRS Iterations
 RTBSE|             608     0.32873318E-007     0.10000000E+002                6
 RTBSE| Simulation step         Convergence     Electron number  ETRS Iterations
 RTBSE|             609     0.32175531E-007     0.10000000E+002                6
 RTBSE| Simulation step         Convergence     Electron number  ETRS Iterations
 RTBSE|             610     0.30966477E-007     0.10000000E+002                6
 RTBSE| Simulation step         Convergence     Electron number  ETRS Iterations
 RTBSE|             611     0.29266613E-007     0.10000000E+002                6
 RTBSE| Simulation step         Convergence     Electron number  ETRS Iterations
 RTBSE|             612     0.27046215E-007     0.10000000E+002                6
 RTBSE| Simulation step         Convergence     Electron number  ETRS Iterations
 RTBSE|             613     0.24314906E-007     0.10000000E+002                6
 RTBSE| Simulation step         Convergence     Electron number  ETRS Iterations
 RTBSE|             614     0.21112773E-007     0.10000000E+002                6
 RTBSE| Simulation step         Convergence     Electron number  ETRS Iterations
 RTBSE|             615     0.96496353E-007     0.10000000E+002                5
 RTBSE| Simulation step         Convergence     Electron number  ETRS Iterations
 RTBSE|             616     0.82380942E-007     0.10000000E+002                5
 RTBSE| Simulation step         Convergence     Electron number  ETRS Iterations
 RTBSE|             617     0.68664853E-007     0.10000000E+002                5
 RTBSE| Simulation step         Convergence     Electron number  ETRS Iterations
 RTBSE|             618     0.61161104E-007     0.10000000E+002                5
 RTBSE| Simulation step         Convergence     Electron number  ETRS Iterations
 RTBSE|             619     0.95341901E-007     0.10000000E+002                5
 RTBSE| Simulation step         Convergence     Electron number  ETRS Iterations
 RTBSE|             620     0.18010749E-007     0.10000000E+002                6
 RTBSE| Simulation step         Convergence     Electron number  ETRS Iterations
 RTBSE|             621     0.21922505E-007     0.10000000E+002                6
 RTBSE| Simulation step         Convergence     Electron number  ETRS Iterations
 RTBSE|             622     0.25610323E-007     0.10000000E+002                6
 RTBSE| Simulation step         Convergence     Electron number  ETRS Iterations
 RTBSE|             623     0.28932423E-007     0.10000000E+002                6
 RTBSE| Simulation step         Convergence     Electron number  ETRS Iterations
 RTBSE|             624     0.31819607E-007     0.10000000E+002                6
 RTBSE| Simulation step         Convergence     Electron number  ETRS Iterations
 RTBSE|             625     0.34193279E-007     0.10000000E+002                6
 RTBSE| Simulation step         Convergence     Electron number  ETRS Iterations
 RTBSE|             626     0.35973675E-007     0.10000000E+002                6
 RTBSE| Simulation step         Convergence     Electron number  ETRS Iterations
 RTBSE|             627     0.37155412E-007     0.10000000E+002                6
 RTBSE| Simulation step         Convergence     Electron number  ETRS Iterations
 RTBSE|             628     0.37684648E-007     0.10000000E+002                6
 RTBSE| Simulation step         Convergence     Electron number  ETRS Iterations
 RTBSE|             629     0.38227119E-007     0.10000000E+002                6
 RTBSE| Simulation step         Convergence     Electron number  ETRS Iterations
 RTBSE|             630     0.39133495E-007     0.10000000E+002                6
 RTBSE| Simulation step         Convergence     Electron number  ETRS Iterations
 RTBSE|             631     0.39366397E-007     0.10000000E+002                6
 RTBSE| Simulation step         Convergence     Electron number  ETRS Iterations
 RTBSE|             632     0.38934852E-007     0.10000000E+002                6
 RTBSE| Simulation step         Convergence     Electron number  ETRS Iterations
 RTBSE|             633     0.37870396E-007     0.10000000E+002                6
 RTBSE| Simulation step         Convergence     Electron number  ETRS Iterations
 RTBSE|             634     0.36215936E-007     0.10000000E+002                6
 RTBSE| Simulation step         Convergence     Electron number  ETRS Iterations
 RTBSE|             635     0.34036624E-007     0.10000000E+002                6
 RTBSE| Simulation step         Convergence     Electron number  ETRS Iterations
 RTBSE|             636     0.31394624E-007     0.10000000E+002                6
 RTBSE| Simulation step         Convergence     Electron number  ETRS Iterations
 RTBSE|             637     0.28351230E-007     0.10000000E+002                6
 RTBSE| Simulation step         Convergence     Electron number  ETRS Iterations
 RTBSE|             638     0.24984536E-007     0.10000000E+002                6
 RTBSE| Simulation step         Convergence     Electron number  ETRS Iterations
 RTBSE|             639     0.21362328E-007     0.10000000E+002                6
 RTBSE| Simulation step         Convergence     Electron number  ETRS Iterations
 RTBSE|             640     0.96283183E-007     0.10000000E+002                5
 RTBSE| Simulation step         Convergence     Electron number  ETRS Iterations
 RTBSE|             641     0.81110798E-007     0.10000000E+002                5
 RTBSE| Simulation step         Convergence     Electron number  ETRS Iterations
 RTBSE|             642     0.66939291E-007     0.10000000E+002                5
 RTBSE| Simulation step         Convergence     Electron number  ETRS Iterations
 RTBSE|             643     0.54946457E-007     0.10000000E+002                5
 RTBSE| Simulation step         Convergence     Electron number  ETRS Iterations
 RTBSE|             644     0.72568487E-007     0.10000000E+002                5
 RTBSE| Simulation step         Convergence     Electron number  ETRS Iterations
 RTBSE|             645     0.13802188E-007     0.10000000E+002                6
 RTBSE| Simulation step         Convergence     Electron number  ETRS Iterations
 RTBSE|             646     0.16940200E-007     0.10000000E+002                6
 RTBSE| Simulation step         Convergence     Electron number  ETRS Iterations
 RTBSE|             647     0.19926980E-007     0.10000000E+002                6
 RTBSE| Simulation step         Convergence     Electron number  ETRS Iterations
 RTBSE|             648     0.22680872E-007     0.10000000E+002                6
 RTBSE| Simulation step         Convergence     Electron number  ETRS Iterations
 RTBSE|             649     0.25164990E-007     0.10000000E+002                6
 RTBSE| Simulation step         Convergence     Electron number  ETRS Iterations
 RTBSE|             650     0.27338376E-007     0.10000000E+002                6
 RTBSE| Simulation step         Convergence     Electron number  ETRS Iterations
 RTBSE|             651     0.29178914E-007     0.10000000E+002                6
 RTBSE| Simulation step         Convergence     Electron number  ETRS Iterations
 RTBSE|             652     0.30659349E-007     0.10000000E+002                6
 RTBSE| Simulation step         Convergence     Electron number  ETRS Iterations
 RTBSE|             653     0.31726592E-007     0.10000000E+002                6
 RTBSE| Simulation step         Convergence     Electron number  ETRS Iterations
 RTBSE|             654     0.32380631E-007     0.10000000E+002                6
 RTBSE| Simulation step         Convergence     Electron number  ETRS Iterations
 RTBSE|             655     0.32605315E-007     0.10000000E+002                6
 RTBSE| Simulation step         Convergence     Electron number  ETRS Iterations
 RTBSE|             656     0.33111874E-007     0.10000000E+002                6
 RTBSE| Simulation step         Convergence     Electron number  ETRS Iterations
 RTBSE|             657     0.33961224E-007     0.10000000E+002                6
 RTBSE| Simulation step         Convergence     Electron number  ETRS Iterations
 RTBSE|             658     0.34340605E-007     0.10000000E+002                6
 RTBSE| Simulation step         Convergence     Electron number  ETRS Iterations
 RTBSE|             659     0.34238764E-007     0.10000000E+002                6
 RTBSE| Simulation step         Convergence     Electron number  ETRS Iterations
 RTBSE|             660     0.33601544E-007     0.10000000E+002                6
 RTBSE| Simulation step         Convergence     Electron number  ETRS Iterations
 RTBSE|             661     0.32446790E-007     0.10000000E+002                6
 RTBSE| Simulation step         Convergence     Electron number  ETRS Iterations
 RTBSE|             662     0.30734013E-007     0.10000000E+002                6
 RTBSE| Simulation step         Convergence     Electron number  ETRS Iterations
 RTBSE|             663     0.28476280E-007     0.10000000E+002                6
 RTBSE| Simulation step         Convergence     Electron number  ETRS Iterations
 RTBSE|             664     0.25698575E-007     0.10000000E+002                6
 RTBSE| Simulation step         Convergence     Electron number  ETRS Iterations
 RTBSE|             665     0.22391346E-007     0.10000000E+002                6
 RTBSE| Simulation step         Convergence     Electron number  ETRS Iterations
 RTBSE|             666     0.18605859E-007     0.10000000E+002                6
 RTBSE| Simulation step         Convergence     Electron number  ETRS Iterations
 RTBSE|             667     0.86710635E-007     0.10000000E+002                5
 RTBSE| Simulation step         Convergence     Electron number  ETRS Iterations
 RTBSE|             668     0.72174038E-007     0.10000000E+002                5
 RTBSE| Simulation step         Convergence     Electron number  ETRS Iterations
 RTBSE|             669     0.60580899E-007     0.10000000E+002                5
 RTBSE| Simulation step         Convergence     Electron number  ETRS Iterations
 RTBSE|             670     0.93617354E-007     0.10000000E+002                5
 RTBSE| Simulation step         Convergence     Electron number  ETRS Iterations
 RTBSE|             671     0.17981477E-007     0.10000000E+002                6
 RTBSE| Simulation step         Convergence     Electron number  ETRS Iterations
 RTBSE|             672     0.22031624E-007     0.10000000E+002                6
 RTBSE| Simulation step         Convergence     Electron number  ETRS Iterations
 RTBSE|             673     0.25844624E-007     0.10000000E+002                6
 RTBSE| Simulation step         Convergence     Electron number  ETRS Iterations
 RTBSE|             674     0.29274025E-007     0.10000000E+002                6
 RTBSE| Simulation step         Convergence     Electron number  ETRS Iterations
 RTBSE|             675     0.32249126E-007     0.10000000E+002                6
 RTBSE| Simulation step         Convergence     Electron number  ETRS Iterations
 RTBSE|             676     0.34685811E-007     0.10000000E+002                6
 RTBSE| Simulation step         Convergence     Electron number  ETRS Iterations
 RTBSE|             677     0.36513294E-007     0.10000000E+002                6
 RTBSE| Simulation step         Convergence     Electron number  ETRS Iterations
 RTBSE|             678     0.37735626E-007     0.10000000E+002                6
 RTBSE| Simulation step         Convergence     Electron number  ETRS Iterations
 RTBSE|             679     0.38283797E-007     0.10000000E+002                6
 RTBSE| Simulation step         Convergence     Electron number  ETRS Iterations
 RTBSE|             680     0.38684095E-007     0.10000000E+002                6
 RTBSE| Simulation step         Convergence     Electron number  ETRS Iterations
 RTBSE|             681     0.39597196E-007     0.10000000E+002                6
 RTBSE| Simulation step         Convergence     Electron number  ETRS Iterations
 RTBSE|             682     0.39824361E-007     0.10000000E+002                6
 RTBSE| Simulation step         Convergence     Electron number  ETRS Iterations
 RTBSE|             683     0.39408029E-007     0.10000000E+002                6
 RTBSE| Simulation step         Convergence     Electron number  ETRS Iterations
 RTBSE|             684     0.38369741E-007     0.10000000E+002                6
 RTBSE| Simulation step         Convergence     Electron number  ETRS Iterations
 RTBSE|             685     0.36755683E-007     0.10000000E+002                6
 RTBSE| Simulation step         Convergence     Electron number  ETRS Iterations
 RTBSE|             686     0.34639480E-007     0.10000000E+002                6
 RTBSE| Simulation step         Convergence     Electron number  ETRS Iterations
 RTBSE|             687     0.32058143E-007     0.10000000E+002                6
 RTBSE| Simulation step         Convergence     Electron number  ETRS Iterations
 RTBSE|             688     0.29094127E-007     0.10000000E+002                6
 RTBSE| Simulation step         Convergence     Electron number  ETRS Iterations
 RTBSE|             689     0.25814653E-007     0.10000000E+002                6
 RTBSE| Simulation step         Convergence     Electron number  ETRS Iterations
 RTBSE|             690     0.22278163E-007     0.10000000E+002                6
 RTBSE| Simulation step         Convergence     Electron number  ETRS Iterations
 RTBSE|             691     0.18544284E-007     0.10000000E+002                6
 RTBSE| Simulation step         Convergence     Electron number  ETRS Iterations
 RTBSE|             692     0.85362288E-007     0.10000000E+002                5
 RTBSE| Simulation step         Convergence     Electron number  ETRS Iterations
 RTBSE|             693     0.71113429E-007     0.10000000E+002                5
 RTBSE| Simulation step         Convergence     Electron number  ETRS Iterations
 RTBSE|             694     0.58312561E-007     0.10000000E+002                5
 RTBSE| Simulation step         Convergence     Electron number  ETRS Iterations
 RTBSE|             695     0.65295667E-007     0.10000000E+002                5
 RTBSE| Simulation step         Convergence     Electron number  ETRS Iterations
 RTBSE|             696     0.93780819E-007     0.10000000E+002                5
 RTBSE| Simulation step         Convergence     Electron number  ETRS Iterations
 RTBSE|             697     0.16313977E-007     0.10000000E+002                6
 RTBSE| Simulation step         Convergence     Electron number  ETRS Iterations
 RTBSE|             698     0.19465513E-007     0.10000000E+002                6
 RTBSE| Simulation step         Convergence     Electron number  ETRS Iterations
 RTBSE|             699     0.22391182E-007     0.10000000E+002                6
 RTBSE| Simulation step         Convergence     Electron number  ETRS Iterations
 RTBSE|             700     0.25083719E-007     0.10000000E+002                6
 RTBSE| Simulation step         Convergence     Electron number  ETRS Iterations
 RTBSE|             701     0.27450193E-007     0.10000000E+002                6
 RTBSE| Simulation step         Convergence     Electron number  ETRS Iterations
 RTBSE|             702     0.29478685E-007     0.10000000E+002                6
 RTBSE| Simulation step         Convergence     Electron number  ETRS Iterations
 RTBSE|             703     0.31118368E-007     0.10000000E+002                6
 RTBSE| Simulation step         Convergence     Electron number  ETRS Iterations
 RTBSE|             704     0.32334655E-007     0.10000000E+002                6
 RTBSE| Simulation step         Convergence     Electron number  ETRS Iterations
 RTBSE|             705     0.33110642E-007     0.10000000E+002                6
 RTBSE| Simulation step         Convergence     Electron number  ETRS Iterations
 RTBSE|             706     0.33412925E-007     0.10000000E+002                6
 RTBSE| Simulation step         Convergence     Electron number  ETRS Iterations
 RTBSE|             707     0.33776896E-007     0.10000000E+002                6
 RTBSE| Simulation step         Convergence     Electron number  ETRS Iterations
 RTBSE|             708     0.34680116E-007     0.10000000E+002                6
 RTBSE| Simulation step         Convergence     Electron number  ETRS Iterations
 RTBSE|             709     0.35100362E-007     0.10000000E+002                6
 RTBSE| Simulation step         Convergence     Electron number  ETRS Iterations
 RTBSE|             710     0.35001148E-007     0.10000000E+002                6
 RTBSE| Simulation step         Convergence     Electron number  ETRS Iterations
 RTBSE|             711     0.34345135E-007     0.10000000E+002                6
 RTBSE| Simulation step         Convergence     Electron number  ETRS Iterations
 RTBSE|             712     0.33150265E-007     0.10000000E+002                6
 RTBSE| Simulation step         Convergence     Electron number  ETRS Iterations
 RTBSE|             713     0.31387017E-007     0.10000000E+002                6
 RTBSE| Simulation step         Convergence     Electron number  ETRS Iterations
 RTBSE|             714     0.29058440E-007     0.10000000E+002                6
 RTBSE| Simulation step         Convergence     Electron number  ETRS Iterations
 RTBSE|             715     0.26211210E-007     0.10000000E+002                6
 RTBSE| Simulation step         Convergence     Electron number  ETRS Iterations
 RTBSE|             716     0.22853305E-007     0.10000000E+002                6
 RTBSE| Simulation step         Convergence     Electron number  ETRS Iterations
 RTBSE|             717     0.19017775E-007     0.10000000E+002                6
 RTBSE| Simulation step         Convergence     Electron number  ETRS Iterations
 RTBSE|             718     0.88238836E-007     0.10000000E+002                5
 RTBSE| Simulation step         Convergence     Electron number  ETRS Iterations
 RTBSE|             719     0.73324325E-007     0.10000000E+002                5
 RTBSE| Simulation step         Convergence     Electron number  ETRS Iterations
 RTBSE|             720     0.61330967E-007     0.10000000E+002                5
 RTBSE| Simulation step         Convergence     Electron number  ETRS Iterations
 RTBSE|             721     0.91452065E-007     0.10000000E+002                5
 RTBSE| Simulation step         Convergence     Electron number  ETRS Iterations
 RTBSE|             722     0.17715752E-007     0.10000000E+002                6
 RTBSE| Simulation step         Convergence     Electron number  ETRS Iterations
 RTBSE|             723     0.21765558E-007     0.10000000E+002                6
 RTBSE| Simulation step         Convergence     Electron number  ETRS Iterations
 RTBSE|             724     0.25540205E-007     0.10000000E+002                6
 RTBSE| Simulation step         Convergence     Electron number  ETRS Iterations
 RTBSE|             725     0.28960068E-007     0.10000000E+002                6
 RTBSE| Simulation step         Convergence     Electron number  ETRS Iterations
 RTBSE|             726     0.31935794E-007     0.10000000E+002                6
 RTBSE| Simulation step         Convergence     Electron number  ETRS Iterations
 RTBSE|             727     0.34386223E-007     0.10000000E+002                6
 RTBSE| Simulation step         Convergence     Electron number  ETRS Iterations
 RTBSE|             728     0.36208151E-007     0.10000000E+002                6
 RTBSE| Simulation step         Convergence     Electron number  ETRS Iterations
 RTBSE|             729     0.37438781E-007     0.10000000E+002                6
 RTBSE| Simulation step         Convergence     Electron number  ETRS Iterations
 RTBSE|             730     0.38020765E-007     0.10000000E+002                6
 RTBSE| Simulation step         Convergence     Electron number  ETRS Iterations
 RTBSE|             731     0.38217129E-007     0.10000000E+002                6
 RTBSE| Simulation step         Convergence     Electron number  ETRS Iterations
 RTBSE|             732     0.39198222E-007     0.10000000E+002                6
 RTBSE| Simulation step         Convergence     Electron number  ETRS Iterations
 RTBSE|             733     0.39535228E-007     0.10000000E+002                6
 RTBSE| Simulation step         Convergence     Electron number  ETRS Iterations
 RTBSE|             734     0.39218142E-007     0.10000000E+002                6
 RTBSE| Simulation step         Convergence     Electron number  ETRS Iterations
 RTBSE|             735     0.38317787E-007     0.10000000E+002                6
 RTBSE| Simulation step         Convergence     Electron number  ETRS Iterations
 RTBSE|             736     0.36874964E-007     0.10000000E+002                6
 RTBSE| Simulation step         Convergence     Electron number  ETRS Iterations
 RTBSE|             737     0.34923549E-007     0.10000000E+002                6
 RTBSE| Simulation step         Convergence     Electron number  ETRS Iterations
 RTBSE|             738     0.32515394E-007     0.10000000E+002                6
 RTBSE| Simulation step         Convergence     Electron number  ETRS Iterations
 RTBSE|             739     0.29734391E-007     0.10000000E+002                6
 RTBSE| Simulation step         Convergence     Electron number  ETRS Iterations
 RTBSE|             740     0.26602734E-007     0.10000000E+002                6
 RTBSE| Simulation step         Convergence     Electron number  ETRS Iterations
 RTBSE|             741     0.23204402E-007     0.10000000E+002                6
 RTBSE| Simulation step         Convergence     Electron number  ETRS Iterations
 RTBSE|             742     0.19577556E-007     0.10000000E+002                6
 RTBSE| Simulation step         Convergence     Electron number  ETRS Iterations
 RTBSE|             743     0.89892132E-007     0.10000000E+002                5
 RTBSE| Simulation step         Convergence     Electron number  ETRS Iterations
 RTBSE|             744     0.75242383E-007     0.10000000E+002                5
 RTBSE| Simulation step         Convergence     Electron number  ETRS Iterations
 RTBSE|             745     0.61979597E-007     0.10000000E+002                5
 RTBSE| Simulation step         Convergence     Electron number  ETRS Iterations
 RTBSE|             746     0.57901629E-007     0.10000000E+002                5
 RTBSE| Simulation step         Convergence     Electron number  ETRS Iterations
 RTBSE|             747     0.87313258E-007     0.10000000E+002                5
 RTBSE| Simulation step         Convergence     Electron number  ETRS Iterations
 RTBSE|             748     0.15690504E-007     0.10000000E+002                6
 RTBSE| Simulation step         Convergence     Electron number  ETRS Iterations
 RTBSE|             749     0.18954127E-007     0.10000000E+002                6
 RTBSE| Simulation step         Convergence     Electron number  ETRS Iterations
 RTBSE|             750     0.22046160E-007     0.10000000E+002                6
 RTBSE| Simulation step         Convergence     Electron number  ETRS Iterations
 RTBSE|             751     0.24872787E-007     0.10000000E+002                6
 RTBSE| Simulation step         Convergence     Electron number  ETRS Iterations
 RTBSE|             752     0.27377813E-007     0.10000000E+002                6
 RTBSE| Simulation step         Convergence     Electron number  ETRS Iterations
 RTBSE|             753     0.29528661E-007     0.10000000E+002                6
 RTBSE| Simulation step         Convergence     Electron number  ETRS Iterations
 RTBSE|             754     0.31283390E-007     0.10000000E+002                6
 RTBSE| Simulation step         Convergence     Electron number  ETRS Iterations
 RTBSE|             755     0.32561102E-007     0.10000000E+002                6
 RTBSE| Simulation step         Convergence     Electron number  ETRS Iterations
 RTBSE|             756     0.33378692E-007     0.10000000E+002                6
 RTBSE| Simulation step         Convergence     Electron number  ETRS Iterations
 RTBSE|             757     0.33698876E-007     0.10000000E+002                6
 RTBSE| Simulation step         Convergence     Electron number  ETRS Iterations
 RTBSE|             758     0.33930786E-007     0.10000000E+002                6
 RTBSE| Simulation step         Convergence     Electron number  ETRS Iterations
 RTBSE|             759     0.34860994E-007     0.10000000E+002                6
 RTBSE| Simulation step         Convergence     Electron number  ETRS Iterations
 RTBSE|             760     0.35277600E-007     0.10000000E+002                6
 RTBSE| Simulation step         Convergence     Electron number  ETRS Iterations
 RTBSE|             761     0.35153557E-007     0.10000000E+002                6
 RTBSE| Simulation step         Convergence     Electron number  ETRS Iterations
 RTBSE|             762     0.34496299E-007     0.10000000E+002                6
 RTBSE| Simulation step         Convergence     Electron number  ETRS Iterations
 RTBSE|             763     0.33294624E-007     0.10000000E+002                6
 RTBSE| Simulation step         Convergence     Electron number  ETRS Iterations
 RTBSE|             764     0.31565051E-007     0.10000000E+002                6
 RTBSE| Simulation step         Convergence     Electron number  ETRS Iterations
 RTBSE|             765     0.29294810E-007     0.10000000E+002                6
 RTBSE| Simulation step         Convergence     Electron number  ETRS Iterations
 RTBSE|             766     0.26499543E-007     0.10000000E+002                6
 RTBSE| Simulation step         Convergence     Electron number  ETRS Iterations
 RTBSE|             767     0.23220817E-007     0.10000000E+002                6
 RTBSE| Simulation step         Convergence     Electron number  ETRS Iterations
 RTBSE|             768     0.19484684E-007     0.10000000E+002                6
 RTBSE| Simulation step         Convergence     Electron number  ETRS Iterations
 RTBSE|             769     0.89894602E-007     0.10000000E+002                5
 RTBSE| Simulation step         Convergence     Electron number  ETRS Iterations
 RTBSE|             770     0.75014790E-007     0.10000000E+002                5
 RTBSE| Simulation step         Convergence     Electron number  ETRS Iterations
 RTBSE|             771     0.62540018E-007     0.10000000E+002                5
 RTBSE| Simulation step         Convergence     Electron number  ETRS Iterations
 RTBSE|             772     0.85043520E-007     0.10000000E+002                5
 RTBSE| Simulation step         Convergence     Electron number  ETRS Iterations
 RTBSE|             773     0.16943992E-007     0.10000000E+002                6
 RTBSE| Simulation step         Convergence     Electron number  ETRS Iterations
 RTBSE|             774     0.20963811E-007     0.10000000E+002                6
 RTBSE| Simulation step         Convergence     Electron number  ETRS Iterations
 RTBSE|             775     0.24775284E-007     0.10000000E+002                6
 RTBSE| Simulation step         Convergence     Electron number  ETRS Iterations
 RTBSE|             776     0.28238704E-007     0.10000000E+002                6
 RTBSE| Simulation step         Convergence     Electron number  ETRS Iterations
 RTBSE|             777     0.31302902E-007     0.10000000E+002                6
 RTBSE| Simulation step         Convergence     Electron number  ETRS Iterations
 RTBSE|             778     0.33803077E-007     0.10000000E+002                6
 RTBSE| Simulation step         Convergence     Electron number  ETRS Iterations
 RTBSE|             779     0.35782942E-007     0.10000000E+002                6
 RTBSE| Simulation step         Convergence     Electron number  ETRS Iterations
 RTBSE|             780     0.37114529E-007     0.10000000E+002                6
 RTBSE| Simulation step         Convergence     Electron number  ETRS Iterations
 RTBSE|             781     0.37836715E-007     0.10000000E+002                6
 RTBSE| Simulation step         Convergence     Electron number  ETRS Iterations
 RTBSE|             782     0.37927129E-007     0.10000000E+002                6
 RTBSE| Simulation step         Convergence     Electron number  ETRS Iterations
 RTBSE|             783     0.38936541E-007     0.10000000E+002                6
 RTBSE| Simulation step         Convergence     Electron number  ETRS Iterations
 RTBSE|             784     0.39403575E-007     0.10000000E+002                6
 RTBSE| Simulation step         Convergence     Electron number  ETRS Iterations
 RTBSE|             785     0.39255132E-007     0.10000000E+002                6
 RTBSE| Simulation step         Convergence     Electron number  ETRS Iterations
 RTBSE|             786     0.38516732E-007     0.10000000E+002                6
 RTBSE| Simulation step         Convergence     Electron number  ETRS Iterations
 RTBSE|             787     0.37223688E-007     0.10000000E+002                6
 RTBSE| Simulation step         Convergence     Electron number  ETRS Iterations
 RTBSE|             788     0.35414474E-007     0.10000000E+002                6
 RTBSE| Simulation step         Convergence     Electron number  ETRS Iterations
 RTBSE|             789     0.33158602E-007     0.10000000E+002                6
 RTBSE| Simulation step         Convergence     Electron number  ETRS Iterations
 RTBSE|             790     0.30494078E-007     0.10000000E+002                6
 RTBSE| Simulation step         Convergence     Electron number  ETRS Iterations
 RTBSE|             791     0.27495424E-007     0.10000000E+002                6
 RTBSE| Simulation step         Convergence     Electron number  ETRS Iterations
 RTBSE|             792     0.24176089E-007     0.10000000E+002                6
 RTBSE| Simulation step         Convergence     Electron number  ETRS Iterations
 RTBSE|             793     0.20610311E-007     0.10000000E+002                6
 RTBSE| Simulation step         Convergence     Electron number  ETRS Iterations
 RTBSE|             794     0.94423453E-007     0.10000000E+002                5
 RTBSE| Simulation step         Convergence     Electron number  ETRS Iterations
 RTBSE|             795     0.79489661E-007     0.10000000E+002                5
 RTBSE| Simulation step         Convergence     Electron number  ETRS Iterations
 RTBSE|             796     0.65574456E-007     0.10000000E+002                5
 RTBSE| Simulation step         Convergence     Electron number  ETRS Iterations
 RTBSE|             797     0.54541981E-007     0.10000000E+002                5
 RTBSE| Simulation step         Convergence     Electron number  ETRS Iterations
 RTBSE|             798     0.82142703E-007     0.10000000E+002                5
 RTBSE| Simulation step         Convergence     Electron number  ETRS Iterations
 RTBSE|             799     0.15209517E-007     0.10000000E+002                6
 RTBSE| Simulation step         Convergence     Electron number  ETRS Iterations
 RTBSE|             800     0.18603994E-007     0.10000000E+002                6
 RTBSE| Simulation step         Convergence     Electron number  ETRS Iterations
 RTBSE|             801     0.21813185E-007     0.10000000E+002                6
 RTBSE| Simulation step         Convergence     Electron number  ETRS Iterations
 RTBSE|             802     0.24749412E-007     0.10000000E+002                6
 RTBSE| Simulation step         Convergence     Electron number  ETRS Iterations
 RTBSE|             803     0.27383304E-007     0.10000000E+002                6
 RTBSE| Simulation step         Convergence     Electron number  ETRS Iterations
 RTBSE|             804     0.29580191E-007     0.10000000E+002                6
 RTBSE| Simulation step         Convergence     Electron number  ETRS Iterations
 RTBSE|             805     0.31386191E-007     0.10000000E+002                6
 RTBSE| Simulation step         Convergence     Electron number  ETRS Iterations
 RTBSE|             806     0.32699899E-007     0.10000000E+002                6
 RTBSE| Simulation step         Convergence     Electron number  ETRS Iterations
 RTBSE|             807     0.33523140E-007     0.10000000E+002                6
 RTBSE| Simulation step         Convergence     Electron number  ETRS Iterations
 RTBSE|             808     0.33860840E-007     0.10000000E+002                6
 RTBSE| Simulation step         Convergence     Electron number  ETRS Iterations
 RTBSE|             809     0.33932553E-007     0.10000000E+002                6
 RTBSE| Simulation step         Convergence     Electron number  ETRS Iterations
 RTBSE|             810     0.34828056E-007     0.10000000E+002                6
 RTBSE| Simulation step         Convergence     Electron number  ETRS Iterations
 RTBSE|             811     0.35231083E-007     0.10000000E+002                6
 RTBSE| Simulation step         Convergence     Electron number  ETRS Iterations
 RTBSE|             812     0.35125269E-007     0.10000000E+002                6
 RTBSE| Simulation step         Convergence     Electron number  ETRS Iterations
 RTBSE|             813     0.34499067E-007     0.10000000E+002                6
 RTBSE| Simulation step         Convergence     Electron number  ETRS Iterations
 RTBSE|             814     0.33341075E-007     0.10000000E+002                6
 RTBSE| Simulation step         Convergence     Electron number  ETRS Iterations
 RTBSE|             815     0.31659106E-007     0.10000000E+002                6
 RTBSE| Simulation step         Convergence     Electron number  ETRS Iterations
 RTBSE|             816     0.29456416E-007     0.10000000E+002                6
 RTBSE| Simulation step         Convergence     Electron number  ETRS Iterations
 RTBSE|             817     0.26774826E-007     0.10000000E+002                6
 RTBSE| Simulation step         Convergence     Electron number  ETRS Iterations
 RTBSE|             818     0.23603101E-007     0.10000000E+002                6
 RTBSE| Simulation step         Convergence     Electron number  ETRS Iterations
 RTBSE|             819     0.19976960E-007     0.10000000E+002                6
 RTBSE| Simulation step         Convergence     Electron number  ETRS Iterations
 RTBSE|             820     0.91770307E-007     0.10000000E+002                5
 RTBSE| Simulation step         Convergence     Electron number  ETRS Iterations
 RTBSE|             821     0.77233049E-007     0.10000000E+002                5
 RTBSE| Simulation step         Convergence     Electron number  ETRS Iterations
 RTBSE|             822     0.64161662E-007     0.10000000E+002                5
 RTBSE| Simulation step         Convergence     Electron number  ETRS Iterations
 RTBSE|             823     0.78770632E-007     0.10000000E+002                5
 RTBSE| Simulation step         Convergence     Electron number  ETRS Iterations
 RTBSE|             824     0.16180733E-007     0.10000000E+002                6
 RTBSE| Simulation step         Convergence     Electron number  ETRS Iterations
 RTBSE|             825     0.20206136E-007     0.10000000E+002                6
 RTBSE| Simulation step         Convergence     Electron number  ETRS Iterations
 RTBSE|             826     0.24069170E-007     0.10000000E+002                6
 RTBSE| Simulation step         Convergence     Electron number  ETRS Iterations
 RTBSE|             827     0.27595244E-007     0.10000000E+002                6
 RTBSE| Simulation step         Convergence     Electron number  ETRS Iterations
 RTBSE|             828     0.30748804E-007     0.10000000E+002                6
 RTBSE| Simulation step         Convergence     Electron number  ETRS Iterations
 RTBSE|             829     0.33404278E-007     0.10000000E+002                6
 RTBSE| Simulation step         Convergence     Electron number  ETRS Iterations
 RTBSE|             830     0.35483487E-007     0.10000000E+002                6
 RTBSE| Simulation step         Convergence     Electron number  ETRS Iterations
 RTBSE|             831     0.36971926E-007     0.10000000E+002                6
 RTBSE| Simulation step         Convergence     Electron number  ETRS Iterations
 RTBSE|             832     0.37797429E-007     0.10000000E+002                6
 RTBSE| Simulation step         Convergence     Electron number  ETRS Iterations
 RTBSE|             833     0.38022336E-007     0.10000000E+002                6
 RTBSE| Simulation step         Convergence     Electron number  ETRS Iterations
 RTBSE|             834     0.38874729E-007     0.10000000E+002                6
 RTBSE| Simulation step         Convergence     Electron number  ETRS Iterations
 RTBSE|             835     0.39487996E-007     0.10000000E+002                6
 RTBSE| Simulation step         Convergence     Electron number  ETRS Iterations
 RTBSE|             836     0.39443535E-007     0.10000000E+002                6
 RTBSE| Simulation step         Convergence     Electron number  ETRS Iterations
 RTBSE|             837     0.38795022E-007     0.10000000E+002                6
 RTBSE| Simulation step         Convergence     Electron number  ETRS Iterations
 RTBSE|             838     0.37564684E-007     0.10000000E+002                6
 RTBSE| Simulation step         Convergence     Electron number  ETRS Iterations
 RTBSE|             839     0.35837220E-007     0.10000000E+002                6
 RTBSE| Simulation step         Convergence     Electron number  ETRS Iterations
 RTBSE|             840     0.33641952E-007     0.10000000E+002                6
 RTBSE| Simulation step         Convergence     Electron number  ETRS Iterations
 RTBSE|             841     0.31033169E-007     0.10000000E+002                6
 RTBSE| Simulation step         Convergence     Electron number  ETRS Iterations
 RTBSE|             842     0.28038880E-007     0.10000000E+002                6
 RTBSE| Simulation step         Convergence     Electron number  ETRS Iterations
 RTBSE|             843     0.24727791E-007     0.10000000E+002                6
 RTBSE| Simulation step         Convergence     Electron number  ETRS Iterations
 RTBSE|             844     0.21179488E-007     0.10000000E+002                6
 RTBSE| Simulation step         Convergence     Electron number  ETRS Iterations
 RTBSE|             845     0.96749052E-007     0.10000000E+002                5
 RTBSE| Simulation step         Convergence     Electron number  ETRS Iterations
 RTBSE|             846     0.81685021E-007     0.10000000E+002                5
 RTBSE| Simulation step         Convergence     Electron number  ETRS Iterations
 RTBSE|             847     0.67402776E-007     0.10000000E+002                5
 RTBSE| Simulation step         Convergence     Electron number  ETRS Iterations
 RTBSE|             848     0.55719657E-007     0.10000000E+002                5
 RTBSE| Simulation step         Convergence     Electron number  ETRS Iterations
 RTBSE|             849     0.78396157E-007     0.10000000E+002                5
 RTBSE| Simulation step         Convergence     Electron number  ETRS Iterations
 RTBSE|             850     0.14798166E-007     0.10000000E+002                6
 RTBSE| Simulation step         Convergence     Electron number  ETRS Iterations
 RTBSE|             851     0.18212779E-007     0.10000000E+002                6
 RTBSE| Simulation step         Convergence     Electron number  ETRS Iterations
 RTBSE|             852     0.21469774E-007     0.10000000E+002                6
 RTBSE| Simulation step         Convergence     Electron number  ETRS Iterations
 RTBSE|             853     0.24411312E-007     0.10000000E+002                6
 RTBSE| Simulation step         Convergence     Electron number  ETRS Iterations
 RTBSE|             854     0.27039529E-007     0.10000000E+002                6
 RTBSE| Simulation step         Convergence     Electron number  ETRS Iterations
 RTBSE|             855     0.29268865E-007     0.10000000E+002                6
 RTBSE| Simulation step         Convergence     Electron number  ETRS Iterations
 RTBSE|             856     0.31054375E-007     0.10000000E+002                6
 RTBSE| Simulation step         Convergence     Electron number  ETRS Iterations
 RTBSE|             857     0.32412640E-007     0.10000000E+002                6
 RTBSE| Simulation step         Convergence     Electron number  ETRS Iterations
 RTBSE|             858     0.33220412E-007     0.10000000E+002                6
 RTBSE| Simulation step         Convergence     Electron number  ETRS Iterations
 RTBSE|             859     0.33567859E-007     0.10000000E+002                6
 RTBSE| Simulation step         Convergence     Electron number  ETRS Iterations
 RTBSE|             860     0.33462613E-007     0.10000000E+002                6
 RTBSE| Simulation step         Convergence     Electron number  ETRS Iterations
 RTBSE|             861     0.34386534E-007     0.10000000E+002                6
 RTBSE| Simulation step         Convergence     Electron number  ETRS Iterations
 RTBSE|             862     0.34839210E-007     0.10000000E+002                6
 RTBSE| Simulation step         Convergence     Electron number  ETRS Iterations
 RTBSE|             863     0.34798984E-007     0.10000000E+002                6
 RTBSE| Simulation step         Convergence     Electron number  ETRS Iterations
 RTBSE|             864     0.34239559E-007     0.10000000E+002                6
 RTBSE| Simulation step         Convergence     Electron number  ETRS Iterations
 RTBSE|             865     0.33193679E-007     0.10000000E+002                6
 RTBSE| Simulation step         Convergence     Electron number  ETRS Iterations
 RTBSE|             866     0.31649290E-007     0.10000000E+002                6
 RTBSE| Simulation step         Convergence     Electron number  ETRS Iterations
 RTBSE|             867     0.29619156E-007     0.10000000E+002                6
 RTBSE| Simulation step         Convergence     Electron number  ETRS Iterations
 RTBSE|             868     0.27109122E-007     0.10000000E+002                6
 RTBSE| Simulation step         Convergence     Electron number  ETRS Iterations
 RTBSE|             869     0.24111419E-007     0.10000000E+002                6
 RTBSE| Simulation step         Convergence     Electron number  ETRS Iterations
 RTBSE|             870     0.20658952E-007     0.10000000E+002                6
 RTBSE| Simulation step         Convergence     Electron number  ETRS Iterations
 RTBSE|             871     0.94711669E-007     0.10000000E+002                5
 RTBSE| Simulation step         Convergence     Electron number  ETRS Iterations
 RTBSE|             872     0.80465722E-007     0.10000000E+002                5
 RTBSE| Simulation step         Convergence     Electron number  ETRS Iterations
 RTBSE|             873     0.66854952E-007     0.10000000E+002                5
 RTBSE| Simulation step         Convergence     Electron number  ETRS Iterations
 RTBSE|             874     0.70946699E-007     0.10000000E+002                5
 RTBSE| Simulation step         Convergence     Electron number  ETRS Iterations
 RTBSE|             875     0.15294087E-007     0.10000000E+002                6
 RTBSE| Simulation step         Convergence     Electron number  ETRS Iterations
 RTBSE|             876     0.19366239E-007     0.10000000E+002                6
 RTBSE| Simulation step         Convergence     Electron number  ETRS Iterations
 RTBSE|             877     0.23324484E-007     0.10000000E+002                6
 RTBSE| Simulation step         Convergence     Electron number  ETRS Iterations
 RTBSE|             878     0.26990077E-007     0.10000000E+002                6
 RTBSE| Simulation step         Convergence     Electron number  ETRS Iterations
 RTBSE|             879     0.30237267E-007     0.10000000E+002                6
 RTBSE| Simulation step         Convergence     Electron number  ETRS Iterations
 RTBSE|             880     0.33016716E-007     0.10000000E+002                6
 RTBSE| Simulation step         Convergence     Electron number  ETRS Iterations
 RTBSE|             881     0.35197981E-007     0.10000000E+002                6
 RTBSE| Simulation step         Convergence     Electron number  ETRS Iterations
 RTBSE|             882     0.36792099E-007     0.10000000E+002                6
 RTBSE| Simulation step         Convergence     Electron number  ETRS Iterations
 RTBSE|             883     0.37715450E-007     0.10000000E+002                6
 RTBSE| Simulation step         Convergence     Electron number  ETRS Iterations
 RTBSE|             884     0.37983260E-007     0.10000000E+002                6
 RTBSE| Simulation step         Convergence     Electron number  ETRS Iterations
 RTBSE|             885     0.38732759E-007     0.10000000E+002                6
 RTBSE| Simulation step         Convergence     Electron number  ETRS Iterations
 RTBSE|             886     0.39396213E-007     0.10000000E+002                6
 RTBSE| Simulation step         Convergence     Electron number  ETRS Iterations
 RTBSE|             887     0.39421322E-007     0.10000000E+002                6
 RTBSE| Simulation step         Convergence     Electron number  ETRS Iterations
 RTBSE|             888     0.38818746E-007     0.10000000E+002                6
 RTBSE| Simulation step         Convergence     Electron number  ETRS Iterations
 RTBSE|             889     0.37678332E-007     0.10000000E+002                6
 RTBSE| Simulation step         Convergence     Electron number  ETRS Iterations
 RTBSE|             890     0.35987257E-007     0.10000000E+002                6
 RTBSE| Simulation step         Convergence     Electron number  ETRS Iterations
 RTBSE|             891     0.33844217E-007     0.10000000E+002                6
 RTBSE| Simulation step         Convergence     Electron number  ETRS Iterations
 RTBSE|             892     0.31289922E-007     0.10000000E+002                6
 RTBSE| Simulation step         Convergence     Electron number  ETRS Iterations
 RTBSE|             893     0.28380155E-007     0.10000000E+002                6
 RTBSE| Simulation step         Convergence     Electron number  ETRS Iterations
 RTBSE|             894     0.25161291E-007     0.10000000E+002                6
 RTBSE| Simulation step         Convergence     Electron number  ETRS Iterations
 RTBSE|             895     0.21690348E-007     0.10000000E+002                6
 RTBSE| Simulation step         Convergence     Electron number  ETRS Iterations
 RTBSE|             896     0.98887671E-007     0.10000000E+002                5
 RTBSE| Simulation step         Convergence     Electron number  ETRS Iterations
 RTBSE|             897     0.83915794E-007     0.10000000E+002                5
 RTBSE| Simulation step         Convergence     Electron number  ETRS Iterations
 RTBSE|             898     0.69533704E-007     0.10000000E+002                5
 RTBSE| Simulation step         Convergence     Electron number  ETRS Iterations
 RTBSE|             899     0.57280123E-007     0.10000000E+002                5
 RTBSE| Simulation step         Convergence     Electron number  ETRS Iterations
 RTBSE|             900     0.71867932E-007     0.10000000E+002                5
 RTBSE| Simulation step         Convergence     Electron number  ETRS Iterations
 RTBSE|             901     0.14028081E-007     0.10000000E+002                6
 RTBSE| Simulation step         Convergence     Electron number  ETRS Iterations
 RTBSE|             902     0.17464727E-007     0.10000000E+002                6
 RTBSE| Simulation step         Convergence     Electron number  ETRS Iterations
 RTBSE|             903     0.20733127E-007     0.10000000E+002                6
 RTBSE| Simulation step         Convergence     Electron number  ETRS Iterations
 RTBSE|             904     0.23760962E-007     0.10000000E+002                6
 RTBSE| Simulation step         Convergence     Electron number  ETRS Iterations
 RTBSE|             905     0.26450861E-007     0.10000000E+002                6
 RTBSE| Simulation step         Convergence     Electron number  ETRS Iterations
 RTBSE|             906     0.28777856E-007     0.10000000E+002                6
 RTBSE| Simulation step         Convergence     Electron number  ETRS Iterations
 RTBSE|             907     0.30648480E-007     0.10000000E+002                6
 RTBSE| Simulation step         Convergence     Electron number  ETRS Iterations
 RTBSE|             908     0.32053517E-007     0.10000000E+002                6
 RTBSE| Simulation step         Convergence     Electron number  ETRS Iterations
 RTBSE|             909     0.33014779E-007     0.10000000E+002                6
 RTBSE| Simulation step         Convergence     Electron number  ETRS Iterations
 RTBSE|             910     0.33482224E-007     0.10000000E+002                6
 RTBSE| Simulation step         Convergence     Electron number  ETRS Iterations
 RTBSE|             911     0.33443535E-007     0.10000000E+002                6
 RTBSE| Simulation step         Convergence     Electron number  ETRS Iterations
 RTBSE|             912     0.34172499E-007     0.10000000E+002                6
 RTBSE| Simulation step         Convergence     Electron number  ETRS Iterations
 RTBSE|             913     0.34723549E-007     0.10000000E+002                6
 RTBSE| Simulation step         Convergence     Electron number  ETRS Iterations
 RTBSE|             914     0.34787733E-007     0.10000000E+002                6
 RTBSE| Simulation step         Convergence     Electron number  ETRS Iterations
 RTBSE|             915     0.34377544E-007     0.10000000E+002                6
 RTBSE| Simulation step         Convergence     Electron number  ETRS Iterations
 RTBSE|             916     0.33462765E-007     0.10000000E+002                6
 RTBSE| Simulation step         Convergence     Electron number  ETRS Iterations
 RTBSE|             917     0.32041972E-007     0.10000000E+002                6
 RTBSE| Simulation step         Convergence     Electron number  ETRS Iterations
 RTBSE|             918     0.30143275E-007     0.10000000E+002                6
 RTBSE| Simulation step         Convergence     Electron number  ETRS Iterations
 RTBSE|             919     0.27754628E-007     0.10000000E+002                6
 RTBSE| Simulation step         Convergence     Electron number  ETRS Iterations
 RTBSE|             920     0.24889543E-007     0.10000000E+002                6
 RTBSE| Simulation step         Convergence     Electron number  ETRS Iterations
 RTBSE|             921     0.21557997E-007     0.10000000E+002                6
 RTBSE| Simulation step         Convergence     Electron number  ETRS Iterations
 RTBSE|             922     0.98570502E-007     0.10000000E+002                5
 RTBSE| Simulation step         Convergence     Electron number  ETRS Iterations
 RTBSE|             923     0.84191035E-007     0.10000000E+002                5
 RTBSE| Simulation step         Convergence     Electron number  ETRS Iterations
 RTBSE|             924     0.69948493E-007     0.10000000E+002                5
 RTBSE| Simulation step         Convergence     Electron number  ETRS Iterations
 RTBSE|             925     0.64656281E-007     0.10000000E+002                5
 RTBSE| Simulation step         Convergence     Electron number  ETRS Iterations
 RTBSE|             926     0.14643601E-007     0.10000000E+002                6
 RTBSE| Simulation step         Convergence     Electron number  ETRS Iterations
 RTBSE|             927     0.18790619E-007     0.10000000E+002                6
 RTBSE| Simulation step         Convergence     Electron number  ETRS Iterations
 RTBSE|             928     0.22842612E-007     0.10000000E+002                6
 RTBSE| Simulation step         Convergence     Electron number  ETRS Iterations
 RTBSE|             929     0.26599546E-007     0.10000000E+002                6
 RTBSE| Simulation step         Convergence     Electron number  ETRS Iterations
 RTBSE|             930     0.29974574E-007     0.10000000E+002                6
 RTBSE| Simulation step         Convergence     Electron number  ETRS Iterations
 RTBSE|             931     0.32829323E-007     0.10000000E+002                6
 RTBSE| Simulation step         Convergence     Electron number  ETRS Iterations
 RTBSE|             932     0.35103784E-007     0.10000000E+002                6
 RTBSE| Simulation step         Convergence     Electron number  ETRS Iterations
 RTBSE|             933     0.36762582E-007     0.10000000E+002                6
 RTBSE| Simulation step         Convergence     Electron number  ETRS Iterations
 RTBSE|             934     0.37737503E-007     0.10000000E+002                6
 RTBSE| Simulation step         Convergence     Electron number  ETRS Iterations
 RTBSE|             935     0.38050203E-007     0.10000000E+002                6
 RTBSE| Simulation step         Convergence     Electron number  ETRS Iterations
 RTBSE|             936     0.38655770E-007     0.10000000E+002                6
 RTBSE| Simulation step         Convergence     Electron number  ETRS Iterations
 RTBSE|             937     0.39346515E-007     0.10000000E+002                6
 RTBSE| Simulation step         Convergence     Electron number  ETRS Iterations
 RTBSE|             938     0.39377535E-007     0.10000000E+002                6
 RTBSE| Simulation step         Convergence     Electron number  ETRS Iterations
 RTBSE|             939     0.38795343E-007     0.10000000E+002                6
 RTBSE| Simulation step         Convergence     Electron number  ETRS Iterations
 RTBSE|             940     0.37641472E-007     0.10000000E+002                6
 RTBSE| Simulation step         Convergence     Electron number  ETRS Iterations
 RTBSE|             941     0.36011897E-007     0.10000000E+002                6
 RTBSE| Simulation step         Convergence     Electron number  ETRS Iterations
 RTBSE|             942     0.33920982E-007     0.10000000E+002                6
 RTBSE| Simulation step         Convergence     Electron number  ETRS Iterations
 RTBSE|             943     0.31447274E-007     0.10000000E+002                6
 RTBSE| Simulation step         Convergence     Electron number  ETRS Iterations
 RTBSE|             944     0.28640989E-007     0.10000000E+002                6
 RTBSE| Simulation step         Convergence     Electron number  ETRS Iterations
 RTBSE|             945     0.25536728E-007     0.10000000E+002                6
 RTBSE| Simulation step         Convergence     Electron number  ETRS Iterations
 RTBSE|             946     0.22153959E-007     0.10000000E+002                6
 RTBSE| Simulation step         Convergence     Electron number  ETRS Iterations
 RTBSE|             947     0.18566208E-007     0.10000000E+002                6
 RTBSE| Simulation step         Convergence     Electron number  ETRS Iterations
 RTBSE|             948     0.86452975E-007     0.10000000E+002                5
 RTBSE| Simulation step         Convergence     Electron number  ETRS Iterations
 RTBSE|             949     0.72148658E-007     0.10000000E+002                5
 RTBSE| Simulation step         Convergence     Electron number  ETRS Iterations
 RTBSE|             950     0.59430685E-007     0.10000000E+002                5
 RTBSE| Simulation step         Convergence     Electron number  ETRS Iterations
 RTBSE|             951     0.65096265E-007     0.10000000E+002                5
 RTBSE| Simulation step         Convergence     Electron number  ETRS Iterations
 RTBSE|             952     0.94989777E-007     0.10000000E+002                5
 RTBSE| Simulation step         Convergence     Electron number  ETRS Iterations
 RTBSE|             953     0.16705582E-007     0.10000000E+002                6
 RTBSE| Simulation step         Convergence     Electron number  ETRS Iterations
 RTBSE|             954     0.20077205E-007     0.10000000E+002                6
 RTBSE| Simulation step         Convergence     Electron number  ETRS Iterations
 RTBSE|             955     0.23196151E-007     0.10000000E+002                6
 RTBSE| Simulation step         Convergence     Electron number  ETRS Iterations
 RTBSE|             956     0.25997178E-007     0.10000000E+002                6
 RTBSE| Simulation step         Convergence     Electron number  ETRS Iterations
 RTBSE|             957     0.28404453E-007     0.10000000E+002                6
 RTBSE| Simulation step         Convergence     Electron number  ETRS Iterations
 RTBSE|             958     0.30404595E-007     0.10000000E+002                6
 RTBSE| Simulation step         Convergence     Electron number  ETRS Iterations
 RTBSE|             959     0.31936902E-007     0.10000000E+002                6
 RTBSE| Simulation step         Convergence     Electron number  ETRS Iterations
 RTBSE|             960     0.32954721E-007     0.10000000E+002                6
 RTBSE| Simulation step         Convergence     Electron number  ETRS Iterations
 RTBSE|             961     0.33490741E-007     0.10000000E+002                6
 RTBSE| Simulation step         Convergence     Electron number  ETRS Iterations
 RTBSE|             962     0.33524498E-007     0.10000000E+002                6
 RTBSE| Simulation step         Convergence     Electron number  ETRS Iterations
 RTBSE|             963     0.34071935E-007     0.10000000E+002                6
 RTBSE| Simulation step         Convergence     Electron number  ETRS Iterations
 RTBSE|             964     0.34710745E-007     0.10000000E+002                6
 RTBSE| Simulation step         Convergence     Electron number  ETRS Iterations
 RTBSE|             965     0.34870366E-007     0.10000000E+002                6
 RTBSE| Simulation step         Convergence     Electron number  ETRS Iterations
 RTBSE|             966     0.34545283E-007     0.10000000E+002                6
 RTBSE| Simulation step         Convergence     Electron number  ETRS Iterations
 RTBSE|             967     0.33732359E-007     0.10000000E+002                6
 RTBSE| Simulation step         Convergence     Electron number  ETRS Iterations
 RTBSE|             968     0.32427157E-007     0.10000000E+002                6
 RTBSE| Simulation step         Convergence     Electron number  ETRS Iterations
 RTBSE|             969     0.30624004E-007     0.10000000E+002                6
 RTBSE| Simulation step         Convergence     Electron number  ETRS Iterations
 RTBSE|             970     0.28331341E-007     0.10000000E+002                6
 RTBSE| Simulation step         Convergence     Electron number  ETRS Iterations
 RTBSE|             971     0.25525772E-007     0.10000000E+002                6
 RTBSE| Simulation step         Convergence     Electron number  ETRS Iterations
 RTBSE|             972     0.22223437E-007     0.10000000E+002                6
 RTBSE| Simulation step         Convergence     Electron number  ETRS Iterations
 RTBSE|             973     0.18456872E-007     0.10000000E+002                6
 RTBSE| Simulation step         Convergence     Electron number  ETRS Iterations
 RTBSE|             974     0.86744864E-007     0.10000000E+002                5
 RTBSE| Simulation step         Convergence     Electron number  ETRS Iterations
 RTBSE|             975     0.72027164E-007     0.10000000E+002                5
 RTBSE| Simulation step         Convergence     Electron number  ETRS Iterations
 RTBSE|             976     0.60644169E-007     0.10000000E+002                5
 RTBSE| Simulation step         Convergence     Electron number  ETRS Iterations
 RTBSE|             977     0.96685471E-007     0.10000000E+002                5
 RTBSE| Simulation step         Convergence     Electron number  ETRS Iterations
 RTBSE|             978     0.18388957E-007     0.10000000E+002                6
 RTBSE| Simulation step         Convergence     Electron number  ETRS Iterations
 RTBSE|             979     0.22484962E-007     0.10000000E+002                6
 RTBSE| Simulation step         Convergence     Electron number  ETRS Iterations
 RTBSE|             980     0.26276238E-007     0.10000000E+002                6
 RTBSE| Simulation step         Convergence     Electron number  ETRS Iterations
 RTBSE|             981     0.29670050E-007     0.10000000E+002                6
 RTBSE| Simulation step         Convergence     Electron number  ETRS Iterations
 RTBSE|             982     0.32537688E-007     0.10000000E+002                6
 RTBSE| Simulation step         Convergence     Electron number  ETRS Iterations
 RTBSE|             983     0.34835050E-007     0.10000000E+002                6
 RTBSE| Simulation step         Convergence     Electron number  ETRS Iterations
 RTBSE|             984     0.36468775E-007     0.10000000E+002                6
 RTBSE| Simulation step         Convergence     Electron number  ETRS Iterations
 RTBSE|             985     0.37418034E-007     0.10000000E+002                6
 RTBSE| Simulation step         Convergence     Electron number  ETRS Iterations
 RTBSE|             986     0.37688950E-007     0.10000000E+002                6
 RTBSE| Simulation step         Convergence     Electron number  ETRS Iterations
 RTBSE|             987     0.38167423E-007     0.10000000E+002                6
 RTBSE| Simulation step         Convergence     Electron number  ETRS Iterations
 RTBSE|             988     0.38820759E-007     0.10000000E+002                6
 RTBSE| Simulation step         Convergence     Electron number  ETRS Iterations
 RTBSE|             989     0.38841322E-007     0.10000000E+002                6
 RTBSE| Simulation step         Convergence     Electron number  ETRS Iterations
 RTBSE|             990     0.38283150E-007     0.10000000E+002                6
 RTBSE| Simulation step         Convergence     Electron number  ETRS Iterations
 RTBSE|             991     0.37196869E-007     0.10000000E+002                6
 RTBSE| Simulation step         Convergence     Electron number  ETRS Iterations
 RTBSE|             992     0.35644147E-007     0.10000000E+002                6
 RTBSE| Simulation step         Convergence     Electron number  ETRS Iterations
 RTBSE|             993     0.33682737E-007     0.10000000E+002                6
 RTBSE| Simulation step         Convergence     Electron number  ETRS Iterations
 RTBSE|             994     0.31378994E-007     0.10000000E+002                6
 RTBSE| Simulation step         Convergence     Electron number  ETRS Iterations
 RTBSE|             995     0.28754171E-007     0.10000000E+002                6
 RTBSE| Simulation step         Convergence     Electron number  ETRS Iterations
 RTBSE|             996     0.25854372E-007     0.10000000E+002                6
 RTBSE| Simulation step         Convergence     Electron number  ETRS Iterations
 RTBSE|             997     0.22701996E-007     0.10000000E+002                6
 RTBSE| Simulation step         Convergence     Electron number  ETRS Iterations
 RTBSE|             998     0.19316423E-007     0.10000000E+002                6
 RTBSE| Simulation step         Convergence     Electron number  ETRS Iterations
 RTBSE|             999     0.89766357E-007     0.10000000E+002                5
 RTBSE| Simulation step         Convergence     Electron number  ETRS Iterations
 RTBSE|            1000     0.75700577E-007     0.10000000E+002                5
 RTBSE| Simulation step         Convergence     Electron number  ETRS Iterations
 RTBSE|            1001     0.62664898E-007     0.10000000E+002                5
 RTBSE| Simulation step         Convergence     Electron number  ETRS Iterations
 RTBSE|            1002     0.56088961E-007     0.10000000E+002                5
 RTBSE| Simulation step         Convergence     Electron number  ETRS Iterations
 RTBSE|            1003     0.86538604E-007     0.10000000E+002                5
 RTBSE| Simulation step         Convergence     Electron number  ETRS Iterations
 RTBSE|            1004     0.15834993E-007     0.10000000E+002                6
 RTBSE| Simulation step         Convergence     Electron number  ETRS Iterations
 RTBSE|            1005     0.19287638E-007     0.10000000E+002                6
 RTBSE| Simulation step         Convergence     Electron number  ETRS Iterations
 RTBSE|            1006     0.22546695E-007     0.10000000E+002                6
 RTBSE| Simulation step         Convergence     Electron number  ETRS Iterations
 RTBSE|            1007     0.25471421E-007     0.10000000E+002                6
 RTBSE| Simulation step         Convergence     Electron number  ETRS Iterations
 RTBSE|            1008     0.28050526E-007     0.10000000E+002                6
 RTBSE| Simulation step         Convergence     Electron number  ETRS Iterations
 RTBSE|            1009     0.30168134E-007     0.10000000E+002                6
 RTBSE| Simulation step         Convergence     Electron number  ETRS Iterations
 RTBSE|            1010     0.31808396E-007     0.10000000E+002                6
 RTBSE| Simulation step         Convergence     Electron number  ETRS Iterations
 RTBSE|            1011     0.32944250E-007     0.10000000E+002                6
 RTBSE| Simulation step         Convergence     Electron number  ETRS Iterations
 RTBSE|            1012     0.33569088E-007     0.10000000E+002                6
 RTBSE| Simulation step         Convergence     Electron number  ETRS Iterations
 RTBSE|            1013     0.33685793E-007     0.10000000E+002                6
 RTBSE| Simulation step         Convergence     Electron number  ETRS Iterations
 RTBSE|            1014     0.34044905E-007     0.10000000E+002                6
 RTBSE| Simulation step         Convergence     Electron number  ETRS Iterations
 RTBSE|            1015     0.34743341E-007     0.10000000E+002                6
 RTBSE| Simulation step         Convergence     Electron number  ETRS Iterations
 RTBSE|            1016     0.34962796E-007     0.10000000E+002                6
 RTBSE| Simulation step         Convergence     Electron number  ETRS Iterations
 RTBSE|            1017     0.34706868E-007     0.10000000E+002                6
 RTBSE| Simulation step         Convergence     Electron number  ETRS Iterations
 RTBSE|            1018     0.33953583E-007     0.10000000E+002                6
 RTBSE| Simulation step         Convergence     Electron number  ETRS Iterations
 RTBSE|            1019     0.32715915E-007     0.10000000E+002                6
 RTBSE| Simulation step         Convergence     Electron number  ETRS Iterations
 RTBSE|            1020     0.30973083E-007     0.10000000E+002                6
 RTBSE| Simulation step         Convergence     Electron number  ETRS Iterations
 RTBSE|            1021     0.28724927E-007     0.10000000E+002                6
 RTBSE| Simulation step         Convergence     Electron number  ETRS Iterations
 RTBSE|            1022     0.25984575E-007     0.10000000E+002                6
 RTBSE| Simulation step         Convergence     Electron number  ETRS Iterations
 RTBSE|            1023     0.22775686E-007     0.10000000E+002                6
 RTBSE| Simulation step         Convergence     Electron number  ETRS Iterations
 RTBSE|            1024     0.19066804E-007     0.10000000E+002                6
 RTBSE| Simulation step         Convergence     Electron number  ETRS Iterations
 RTBSE|            1025     0.88959743E-007     0.10000000E+002                5
 RTBSE| Simulation step         Convergence     Electron number  ETRS Iterations
 RTBSE|            1026     0.73948843E-007     0.10000000E+002                5
 RTBSE| Simulation step         Convergence     Electron number  ETRS Iterations
 RTBSE|            1027     0.61837614E-007     0.10000000E+002                5
 RTBSE| Simulation step         Convergence     Electron number  ETRS Iterations
 RTBSE|            1028     0.91038447E-007     0.10000000E+002                5
 RTBSE| Simulation step         Convergence     Electron number  ETRS Iterations
 RTBSE|            1029     0.17760552E-007     0.10000000E+002                6
 RTBSE| Simulation step         Convergence     Electron number  ETRS Iterations
 RTBSE|            1030     0.21837106E-007     0.10000000E+002                6
 RTBSE| Simulation step         Convergence     Electron number  ETRS Iterations
 RTBSE|            1031     0.25663135E-007     0.10000000E+002                6
 RTBSE| Simulation step         Convergence     Electron number  ETRS Iterations
 RTBSE|            1032     0.29108535E-007     0.10000000E+002                6
 RTBSE| Simulation step         Convergence     Electron number  ETRS Iterations
 RTBSE|            1033     0.31993895E-007     0.10000000E+002                6
 RTBSE| Simulation step         Convergence     Electron number  ETRS Iterations
 RTBSE|            1034     0.34308856E-007     0.10000000E+002                6
 RTBSE| Simulation step         Convergence     Electron number  ETRS Iterations
 RTBSE|            1035     0.35972324E-007     0.10000000E+002                6
 RTBSE| Simulation step         Convergence     Electron number  ETRS Iterations
 RTBSE|            1036     0.36976871E-007     0.10000000E+002                6
 RTBSE| Simulation step         Convergence     Electron number  ETRS Iterations
 RTBSE|            1037     0.37312782E-007     0.10000000E+002                6
 RTBSE| Simulation step         Convergence     Electron number  ETRS Iterations
 RTBSE|            1038     0.37568918E-007     0.10000000E+002                6
 RTBSE| Simulation step         Convergence     Electron number  ETRS Iterations
 RTBSE|            1039     0.38261810E-007     0.10000000E+002                6
 RTBSE| Simulation step         Convergence     Electron number  ETRS Iterations
 RTBSE|            1040     0.38362739E-007     0.10000000E+002                6
 RTBSE| Simulation step         Convergence     Electron number  ETRS Iterations
 RTBSE|            1041     0.37917584E-007     0.10000000E+002                6
 RTBSE| Simulation step         Convergence     Electron number  ETRS Iterations
 RTBSE|            1042     0.36962170E-007     0.10000000E+002                6
 RTBSE| Simulation step         Convergence     Electron number  ETRS Iterations
 RTBSE|            1043     0.35583904E-007     0.10000000E+002                6
 RTBSE| Simulation step         Convergence     Electron number  ETRS Iterations
 RTBSE|            1044     0.33815793E-007     0.10000000E+002                6
 RTBSE| Simulation step         Convergence     Electron number  ETRS Iterations
 RTBSE|            1045     0.31714151E-007     0.10000000E+002                6
 RTBSE| Simulation step         Convergence     Electron number  ETRS Iterations
 RTBSE|            1046     0.29288026E-007     0.10000000E+002                6
 RTBSE| Simulation step         Convergence     Electron number  ETRS Iterations
 RTBSE|            1047     0.26589097E-007     0.10000000E+002                6
 RTBSE| Simulation step         Convergence     Electron number  ETRS Iterations
 RTBSE|            1048     0.23606627E-007     0.10000000E+002                6
 RTBSE| Simulation step         Convergence     Electron number  ETRS Iterations
 RTBSE|            1049     0.20360167E-007     0.10000000E+002                6
 RTBSE| Simulation step         Convergence     Electron number  ETRS Iterations
 RTBSE|            1050     0.94545490E-007     0.10000000E+002                5
 RTBSE| Simulation step         Convergence     Electron number  ETRS Iterations
 RTBSE|            1051     0.80503667E-007     0.10000000E+002                5
 RTBSE| Simulation step         Convergence     Electron number  ETRS Iterations
 RTBSE|            1052     0.66934623E-007     0.10000000E+002                5
 RTBSE| Simulation step         Convergence     Electron number  ETRS Iterations
 RTBSE|            1053     0.55628017E-007     0.10000000E+002                5
 RTBSE| Simulation step         Convergence     Electron number  ETRS Iterations
 RTBSE|            1054     0.79478241E-007     0.10000000E+002                5
 RTBSE| Simulation step         Convergence     Electron number  ETRS Iterations
 RTBSE|            1055     0.15142508E-007     0.10000000E+002                6
 RTBSE| Simulation step         Convergence     Electron number  ETRS Iterations
 RTBSE|            1056     0.18722596E-007     0.10000000E+002                6
 RTBSE| Simulation step         Convergence     Electron number  ETRS Iterations
 RTBSE|            1057     0.22108014E-007     0.10000000E+002                6
 RTBSE| Simulation step         Convergence     Electron number  ETRS Iterations
 RTBSE|            1058     0.25221004E-007     0.10000000E+002                6
 RTBSE| Simulation step         Convergence     Electron number  ETRS Iterations
 RTBSE|            1059     0.27897666E-007     0.10000000E+002                6
 RTBSE| Simulation step         Convergence     Electron number  ETRS Iterations
 RTBSE|            1060     0.30153452E-007     0.10000000E+002                6
 RTBSE| Simulation step         Convergence     Electron number  ETRS Iterations
 RTBSE|            1061     0.31889583E-007     0.10000000E+002                6
 RTBSE| Simulation step         Convergence     Electron number  ETRS Iterations
 RTBSE|            1062     0.33100780E-007     0.10000000E+002                6
 RTBSE| Simulation step         Convergence     Electron number  ETRS Iterations
 RTBSE|            1063     0.33790842E-007     0.10000000E+002                6
 RTBSE| Simulation step         Convergence     Electron number  ETRS Iterations
 RTBSE|            1064     0.33943778E-007     0.10000000E+002                6
 RTBSE| Simulation step         Convergence     Electron number  ETRS Iterations
 RTBSE|            1065     0.34162718E-007     0.10000000E+002                6
 RTBSE| Simulation step         Convergence     Electron number  ETRS Iterations
 RTBSE|            1066     0.34896943E-007     0.10000000E+002                6
 RTBSE| Simulation step         Convergence     Electron number  ETRS Iterations
 RTBSE|            1067     0.35136313E-007     0.10000000E+002                6
 RTBSE| Simulation step         Convergence     Electron number  ETRS Iterations
 RTBSE|            1068     0.34883587E-007     0.10000000E+002                6
 RTBSE| Simulation step         Convergence     Electron number  ETRS Iterations
 RTBSE|            1069     0.34141109E-007     0.10000000E+002                6
 RTBSE| Simulation step         Convergence     Electron number  ETRS Iterations
 RTBSE|            1070     0.32923074E-007     0.10000000E+002                6
 RTBSE| Simulation step         Convergence     Electron number  ETRS Iterations
 RTBSE|            1071     0.31223670E-007     0.10000000E+002                6
 RTBSE| Simulation step         Convergence     Electron number  ETRS Iterations
 RTBSE|            1072     0.29031087E-007     0.10000000E+002                6
 RTBSE| Simulation step         Convergence     Electron number  ETRS Iterations
 RTBSE|            1073     0.26357270E-007     0.10000000E+002                6
 RTBSE| Simulation step         Convergence     Electron number  ETRS Iterations
 RTBSE|            1074     0.23196583E-007     0.10000000E+002                6
 RTBSE| Simulation step         Convergence     Electron number  ETRS Iterations
 RTBSE|            1075     0.19547384E-007     0.10000000E+002                6
 RTBSE| Simulation step         Convergence     Electron number  ETRS Iterations
 RTBSE|            1076     0.90700989E-007     0.10000000E+002                5
 RTBSE| Simulation step         Convergence     Electron number  ETRS Iterations
 RTBSE|            1077     0.75873839E-007     0.10000000E+002                5
 RTBSE| Simulation step         Convergence     Electron number  ETRS Iterations
 RTBSE|            1078     0.63007110E-007     0.10000000E+002                5
 RTBSE| Simulation step         Convergence     Electron number  ETRS Iterations
 RTBSE|            1079     0.86235367E-007     0.10000000E+002                5
 RTBSE| Simulation step         Convergence     Electron number  ETRS Iterations
 RTBSE|            1080     0.17197858E-007     0.10000000E+002                6
 RTBSE| Simulation step         Convergence     Electron number  ETRS Iterations
 RTBSE|            1081     0.21308108E-007     0.10000000E+002                6
 RTBSE| Simulation step         Convergence     Electron number  ETRS Iterations
 RTBSE|            1082     0.25137926E-007     0.10000000E+002                6
 RTBSE| Simulation step         Convergence     Electron number  ETRS Iterations
 RTBSE|            1083     0.28590652E-007     0.10000000E+002                6
 RTBSE| Simulation step         Convergence     Electron number  ETRS Iterations
 RTBSE|            1084     0.31498774E-007     0.10000000E+002                6
 RTBSE| Simulation step         Convergence     Electron number  ETRS Iterations
 RTBSE|            1085     0.33829037E-007     0.10000000E+002                6
 RTBSE| Simulation step         Convergence     Electron number  ETRS Iterations
 RTBSE|            1086     0.35528353E-007     0.10000000E+002                6
 RTBSE| Simulation step         Convergence     Electron number  ETRS Iterations
 RTBSE|            1087     0.36587621E-007     0.10000000E+002                6
 RTBSE| Simulation step         Convergence     Electron number  ETRS Iterations
 RTBSE|            1088     0.36948842E-007     0.10000000E+002                6
 RTBSE| Simulation step         Convergence     Electron number  ETRS Iterations
 RTBSE|            1089     0.36990652E-007     0.10000000E+002                6
 RTBSE| Simulation step         Convergence     Electron number  ETRS Iterations
 RTBSE|            1090     0.37747983E-007     0.10000000E+002                6
 RTBSE| Simulation step         Convergence     Electron number  ETRS Iterations
 RTBSE|            1091     0.37929788E-007     0.10000000E+002                6
 RTBSE| Simulation step         Convergence     Electron number  ETRS Iterations
 RTBSE|            1092     0.37581707E-007     0.10000000E+002                6
 RTBSE| Simulation step         Convergence     Electron number  ETRS Iterations
 RTBSE|            1093     0.36771131E-007     0.10000000E+002                6
 RTBSE| Simulation step         Convergence     Electron number  ETRS Iterations
 RTBSE|            1094     0.35538791E-007     0.10000000E+002                6
 RTBSE| Simulation step         Convergence     Electron number  ETRS Iterations
 RTBSE|            1095     0.33952140E-007     0.10000000E+002                6
 RTBSE| Simulation step         Convergence     Electron number  ETRS Iterations
 RTBSE|            1096     0.32034515E-007     0.10000000E+002                6
 RTBSE| Simulation step         Convergence     Electron number  ETRS Iterations
 RTBSE|            1097     0.29790724E-007     0.10000000E+002                6
 RTBSE| Simulation step         Convergence     Electron number  ETRS Iterations
 RTBSE|            1098     0.27262172E-007     0.10000000E+002                6
 RTBSE| Simulation step         Convergence     Electron number  ETRS Iterations
 RTBSE|            1099     0.24428792E-007     0.10000000E+002                6
 RTBSE| Simulation step         Convergence     Electron number  ETRS Iterations
 RTBSE|            1100     0.21314099E-007     0.10000000E+002                6
 RTBSE| Simulation step         Convergence     Electron number  ETRS Iterations
 RTBSE|            1101     0.98857274E-007     0.10000000E+002                5
 RTBSE| Simulation step         Convergence     Electron number  ETRS Iterations
 RTBSE|            1102     0.84782636E-007     0.10000000E+002                5
 RTBSE| Simulation step         Convergence     Electron number  ETRS Iterations
 RTBSE|            1103     0.70761291E-007     0.10000000E+002                5
 RTBSE| Simulation step         Convergence     Electron number  ETRS Iterations
 RTBSE|            1104     0.58515867E-007     0.10000000E+002                5
 RTBSE| Simulation step         Convergence     Electron number  ETRS Iterations
 RTBSE|            1105     0.73694232E-007     0.10000000E+002                5
 RTBSE| Simulation step         Convergence     Electron number  ETRS Iterations
 RTBSE|            1106     0.14621952E-007     0.10000000E+002                6
 RTBSE| Simulation step         Convergence     Electron number  ETRS Iterations
 RTBSE|            1107     0.18324088E-007     0.10000000E+002                6
 RTBSE| Simulation step         Convergence     Electron number  ETRS Iterations
 RTBSE|            1108     0.21840197E-007     0.10000000E+002                6
 RTBSE| Simulation step         Convergence     Electron number  ETRS Iterations
 RTBSE|            1109     0.25029501E-007     0.10000000E+002                6
 RTBSE| Simulation step         Convergence     Electron number  ETRS Iterations
 RTBSE|            1110     0.27819621E-007     0.10000000E+002                6
 RTBSE| Simulation step         Convergence     Electron number  ETRS Iterations
 RTBSE|            1111     0.30143841E-007     0.10000000E+002                6
 RTBSE| Simulation step         Convergence     Electron number  ETRS Iterations
 RTBSE|            1112     0.31929658E-007     0.10000000E+002                6
 RTBSE| Simulation step         Convergence     Electron number  ETRS Iterations
 RTBSE|            1113     0.33158484E-007     0.10000000E+002                6
 RTBSE| Simulation step         Convergence     Electron number  ETRS Iterations
 RTBSE|            1114     0.33818000E-007     0.10000000E+002                6
 RTBSE| Simulation step         Convergence     Electron number  ETRS Iterations
 RTBSE|            1115     0.33954868E-007     0.10000000E+002                6
 RTBSE| Simulation step         Convergence     Electron number  ETRS Iterations
 RTBSE|            1116     0.34022360E-007     0.10000000E+002                6
 RTBSE| Simulation step         Convergence     Electron number  ETRS Iterations
 RTBSE|            1117     0.34715339E-007     0.10000000E+002                6
 RTBSE| Simulation step         Convergence     Electron number  ETRS Iterations
 RTBSE|            1118     0.34943610E-007     0.10000000E+002                6
 RTBSE| Simulation step         Convergence     Electron number  ETRS Iterations
 RTBSE|            1119     0.34672239E-007     0.10000000E+002                6
 RTBSE| Simulation step         Convergence     Electron number  ETRS Iterations
 RTBSE|            1120     0.33942163E-007     0.10000000E+002                6
 RTBSE| Simulation step         Convergence     Electron number  ETRS Iterations
 RTBSE|            1121     0.32762794E-007     0.10000000E+002                6
 RTBSE| Simulation step         Convergence     Electron number  ETRS Iterations
 RTBSE|            1122     0.31119484E-007     0.10000000E+002                6
 RTBSE| Simulation step         Convergence     Electron number  ETRS Iterations
 RTBSE|            1123     0.29028100E-007     0.10000000E+002                6
 RTBSE| Simulation step         Convergence     Electron number  ETRS Iterations
 RTBSE|            1124     0.26453759E-007     0.10000000E+002                6
 RTBSE| Simulation step         Convergence     Electron number  ETRS Iterations
 RTBSE|            1125     0.23415290E-007     0.10000000E+002                6
 RTBSE| Simulation step         Convergence     Electron number  ETRS Iterations
 RTBSE|            1126     0.19908106E-007     0.10000000E+002                6
 RTBSE| Simulation step         Convergence     Electron number  ETRS Iterations
 RTBSE|            1127     0.91936785E-007     0.10000000E+002                5
 RTBSE| Simulation step         Convergence     Electron number  ETRS Iterations
 RTBSE|            1128     0.77596606E-007     0.10000000E+002                5
 RTBSE| Simulation step         Convergence     Electron number  ETRS Iterations
 RTBSE|            1129     0.64126769E-007     0.10000000E+002                5
 RTBSE| Simulation step         Convergence     Electron number  ETRS Iterations
 RTBSE|            1130     0.79431973E-007     0.10000000E+002                5
 RTBSE| Simulation step         Convergence     Electron number  ETRS Iterations
 RTBSE|            1131     0.16297954E-007     0.10000000E+002                6
 RTBSE| Simulation step         Convergence     Electron number  ETRS Iterations
 RTBSE|            1132     0.20370940E-007     0.10000000E+002                6
 RTBSE| Simulation step         Convergence     Electron number  ETRS Iterations
 RTBSE|            1133     0.24206761E-007     0.10000000E+002                6
 RTBSE| Simulation step         Convergence     Electron number  ETRS Iterations
 RTBSE|            1134     0.27694348E-007     0.10000000E+002                6
 RTBSE| Simulation step         Convergence     Electron number  ETRS Iterations
 RTBSE|            1135     0.30679512E-007     0.10000000E+002                6
 RTBSE| Simulation step         Convergence     Electron number  ETRS Iterations
 RTBSE|            1136     0.33070140E-007     0.10000000E+002                6
 RTBSE| Simulation step         Convergence     Electron number  ETRS Iterations
 RTBSE|            1137     0.34855219E-007     0.10000000E+002                6
 RTBSE| Simulation step         Convergence     Electron number  ETRS Iterations
 RTBSE|            1138     0.36004622E-007     0.10000000E+002                6
 RTBSE| Simulation step         Convergence     Electron number  ETRS Iterations
 RTBSE|            1139     0.36513915E-007     0.10000000E+002                6
 RTBSE| Simulation step         Convergence     Electron number  ETRS Iterations
 RTBSE|            1140     0.36444540E-007     0.10000000E+002                6
 RTBSE| Simulation step         Convergence     Electron number  ETRS Iterations
 RTBSE|            1141     0.37225032E-007     0.10000000E+002                6
 RTBSE| Simulation step         Convergence     Electron number  ETRS Iterations
 RTBSE|            1142     0.37542579E-007     0.10000000E+002                6
 RTBSE| Simulation step         Convergence     Electron number  ETRS Iterations
 RTBSE|            1143     0.37350694E-007     0.10000000E+002                6
 RTBSE| Simulation step         Convergence     Electron number  ETRS Iterations
 RTBSE|            1144     0.36699594E-007     0.10000000E+002                6
 RTBSE| Simulation step         Convergence     Electron number  ETRS Iterations
 RTBSE|            1145     0.35669454E-007     0.10000000E+002                6
 RTBSE| Simulation step         Convergence     Electron number  ETRS Iterations
 RTBSE|            1146     0.34248532E-007     0.10000000E+002                6
 RTBSE| Simulation step         Convergence     Electron number  ETRS Iterations
 RTBSE|            1147     0.32497574E-007     0.10000000E+002                6
 RTBSE| Simulation step         Convergence     Electron number  ETRS Iterations
 RTBSE|            1148     0.30424162E-007     0.10000000E+002                6
 RTBSE| Simulation step         Convergence     Electron number  ETRS Iterations
 RTBSE|            1149     0.28035609E-007     0.10000000E+002                6
 RTBSE| Simulation step         Convergence     Electron number  ETRS Iterations
 RTBSE|            1150     0.25329326E-007     0.10000000E+002                6
 RTBSE| Simulation step         Convergence     Electron number  ETRS Iterations
 RTBSE|            1151     0.22299031E-007     0.10000000E+002                6
 RTBSE| Simulation step         Convergence     Electron number  ETRS Iterations
 RTBSE|            1152     0.18932206E-007     0.10000000E+002                6
 RTBSE| Simulation step         Convergence     Electron number  ETRS Iterations
 RTBSE|            1153     0.89279150E-007     0.10000000E+002                5
 RTBSE| Simulation step         Convergence     Electron number  ETRS Iterations
 RTBSE|            1154     0.74835164E-007     0.10000000E+002                5
 RTBSE| Simulation step         Convergence     Electron number  ETRS Iterations
 RTBSE|            1155     0.61631135E-007     0.10000000E+002                5
 RTBSE| Simulation step         Convergence     Electron number  ETRS Iterations
 RTBSE|            1156     0.67756646E-007     0.10000000E+002                5
 RTBSE| Simulation step         Convergence     Electron number  ETRS Iterations
 RTBSE|            1157     0.14056307E-007     0.10000000E+002                6
 RTBSE| Simulation step         Convergence     Electron number  ETRS Iterations
 RTBSE|            1158     0.17873963E-007     0.10000000E+002                6
 RTBSE| Simulation step         Convergence     Electron number  ETRS Iterations
 RTBSE|            1159     0.21492267E-007     0.10000000E+002                6
 RTBSE| Simulation step         Convergence     Electron number  ETRS Iterations
 RTBSE|            1160     0.24792887E-007     0.10000000E+002                6
 RTBSE| Simulation step         Convergence     Electron number  ETRS Iterations
 RTBSE|            1161     0.27661277E-007     0.10000000E+002                6
 RTBSE| Simulation step         Convergence     Electron number  ETRS Iterations
 RTBSE|            1162     0.30015957E-007     0.10000000E+002                6
 RTBSE| Simulation step         Convergence     Electron number  ETRS Iterations
 RTBSE|            1163     0.31833727E-007     0.10000000E+002                6
 RTBSE| Simulation step         Convergence     Electron number  ETRS Iterations
 RTBSE|            1164     0.33073870E-007     0.10000000E+002                6
 RTBSE| Simulation step         Convergence     Electron number  ETRS Iterations
 RTBSE|            1165     0.33746747E-007     0.10000000E+002                6
 RTBSE| Simulation step         Convergence     Electron number  ETRS Iterations
 RTBSE|            1166     0.33872808E-007     0.10000000E+002                6
 RTBSE| Simulation step         Convergence     Electron number  ETRS Iterations
 RTBSE|            1167     0.33754120E-007     0.10000000E+002                6
 RTBSE| Simulation step         Convergence     Electron number  ETRS Iterations
 RTBSE|            1168     0.34456011E-007     0.10000000E+002                6
 RTBSE| Simulation step         Convergence     Electron number  ETRS Iterations
 RTBSE|            1169     0.34673845E-007     0.10000000E+002                6
 RTBSE| Simulation step         Convergence     Electron number  ETRS Iterations
 RTBSE|            1170     0.34439659E-007     0.10000000E+002                6
 RTBSE| Simulation step         Convergence     Electron number  ETRS Iterations
 RTBSE|            1171     0.33773848E-007     0.10000000E+002                6
 RTBSE| Simulation step         Convergence     Electron number  ETRS Iterations
 RTBSE|            1172     0.32685753E-007     0.10000000E+002                6
 RTBSE| Simulation step         Convergence     Electron number  ETRS Iterations
 RTBSE|            1173     0.31177608E-007     0.10000000E+002                6
 RTBSE| Simulation step         Convergence     Electron number  ETRS Iterations
 RTBSE|            1174     0.29200570E-007     0.10000000E+002                6
 RTBSE| Simulation step         Convergence     Electron number  ETRS Iterations
 RTBSE|            1175     0.26802435E-007     0.10000000E+002                6
 RTBSE| Simulation step         Convergence     Electron number  ETRS Iterations
 RTBSE|            1176     0.23920705E-007     0.10000000E+002                6
 RTBSE| Simulation step         Convergence     Electron number  ETRS Iterations
 RTBSE|            1177     0.20583915E-007     0.10000000E+002                6
 RTBSE| Simulation step         Convergence     Electron number  ETRS Iterations
 RTBSE|            1178     0.94517228E-007     0.10000000E+002                5
 RTBSE| Simulation step         Convergence     Electron number  ETRS Iterations
 RTBSE|            1179     0.80687273E-007     0.10000000E+002                5
 RTBSE| Simulation step         Convergence     Electron number  ETRS Iterations
 RTBSE|            1180     0.66656160E-007     0.10000000E+002                5
 RTBSE| Simulation step         Convergence     Electron number  ETRS Iterations
 RTBSE|            1181     0.71563238E-007     0.10000000E+002                5
 RTBSE| Simulation step         Convergence     Electron number  ETRS Iterations
 RTBSE|            1182     0.15390927E-007     0.10000000E+002                6
 RTBSE| Simulation step         Convergence     Electron number  ETRS Iterations
 RTBSE|            1183     0.19483098E-007     0.10000000E+002                6
 RTBSE| Simulation step         Convergence     Electron number  ETRS Iterations
 RTBSE|            1184     0.23416253E-007     0.10000000E+002                6
 RTBSE| Simulation step         Convergence     Electron number  ETRS Iterations
 RTBSE|            1185     0.26980374E-007     0.10000000E+002                6
 RTBSE| Simulation step         Convergence     Electron number  ETRS Iterations
 RTBSE|            1186     0.30065341E-007     0.10000000E+002                6
 RTBSE| Simulation step         Convergence     Electron number  ETRS Iterations
 RTBSE|            1187     0.32611826E-007     0.10000000E+002                6
 RTBSE| Simulation step         Convergence     Electron number  ETRS Iterations
 RTBSE|            1188     0.34495161E-007     0.10000000E+002                6
 RTBSE| Simulation step         Convergence     Electron number  ETRS Iterations
 RTBSE|            1189     0.35763236E-007     0.10000000E+002                6
 RTBSE| Simulation step         Convergence     Electron number  ETRS Iterations
 RTBSE|            1190     0.36373553E-007     0.10000000E+002                6
 RTBSE| Simulation step         Convergence     Electron number  ETRS Iterations
 RTBSE|            1191     0.36381154E-007     0.10000000E+002                6
 RTBSE| Simulation step         Convergence     Electron number  ETRS Iterations
 RTBSE|            1192     0.36984850E-007     0.10000000E+002                6
 RTBSE| Simulation step         Convergence     Electron number  ETRS Iterations
 RTBSE|            1193     0.37432875E-007     0.10000000E+002                6
 RTBSE| Simulation step         Convergence     Electron number  ETRS Iterations
 RTBSE|            1194     0.37367669E-007     0.10000000E+002                6
 RTBSE| Simulation step         Convergence     Electron number  ETRS Iterations
 RTBSE|            1195     0.36850068E-007     0.10000000E+002                6
 RTBSE| Simulation step         Convergence     Electron number  ETRS Iterations
 RTBSE|            1196     0.35927798E-007     0.10000000E+002                6
 RTBSE| Simulation step         Convergence     Electron number  ETRS Iterations
 RTBSE|            1197     0.34656773E-007     0.10000000E+002                6
 RTBSE| Simulation step         Convergence     Electron number  ETRS Iterations
 RTBSE|            1198     0.33043207E-007     0.10000000E+002                6
 RTBSE| Simulation step         Convergence     Electron number  ETRS Iterations
 RTBSE|            1199     0.31109518E-007     0.10000000E+002                6
 RTBSE| Simulation step         Convergence     Electron number  ETRS Iterations
 RTBSE|            1200     0.28826706E-007     0.10000000E+002                6
 RTBSE| Simulation step         Convergence     Electron number  ETRS Iterations
 RTBSE|            1201     0.26196468E-007     0.10000000E+002                6
 RTBSE| Simulation step         Convergence     Electron number  ETRS Iterations
 RTBSE|            1202     0.23215496E-007     0.10000000E+002                6
 RTBSE| Simulation step         Convergence     Electron number  ETRS Iterations
 RTBSE|            1203     0.19874988E-007     0.10000000E+002                6
 RTBSE| Simulation step         Convergence     Electron number  ETRS Iterations
 RTBSE|            1204     0.93287596E-007     0.10000000E+002                5
 RTBSE| Simulation step         Convergence     Electron number  ETRS Iterations
 RTBSE|            1205     0.78393252E-007     0.10000000E+002                5
 RTBSE| Simulation step         Convergence     Electron number  ETRS Iterations
 RTBSE|            1206     0.64336255E-007     0.10000000E+002                5
 RTBSE| Simulation step         Convergence     Electron number  ETRS Iterations
 RTBSE|            1207     0.63618767E-007     0.10000000E+002                5
 RTBSE| Simulation step         Convergence     Electron number  ETRS Iterations
 RTBSE|            1208     0.97229831E-007     0.10000000E+002                5
 RTBSE| Simulation step         Convergence     Electron number  ETRS Iterations
 RTBSE|            1209     0.17619190E-007     0.10000000E+002                6
 RTBSE| Simulation step         Convergence     Electron number  ETRS Iterations
 RTBSE|            1210     0.21307707E-007     0.10000000E+002                6
 RTBSE| Simulation step         Convergence     Electron number  ETRS Iterations
 RTBSE|            1211     0.24651201E-007     0.10000000E+002                6
 RTBSE| Simulation step         Convergence     Electron number  ETRS Iterations
 RTBSE|            1212     0.27552025E-007     0.10000000E+002                6
 RTBSE| Simulation step         Convergence     Electron number  ETRS Iterations
 RTBSE|            1213     0.29910913E-007     0.10000000E+002                6
 RTBSE| Simulation step         Convergence     Electron number  ETRS Iterations
 RTBSE|            1214     0.31709900E-007     0.10000000E+002                6
 RTBSE| Simulation step         Convergence     Electron number  ETRS Iterations
 RTBSE|            1215     0.32939052E-007     0.10000000E+002                6
 RTBSE| Simulation step         Convergence     Electron number  ETRS Iterations
 RTBSE|            1216     0.33595364E-007     0.10000000E+002                6
 RTBSE| Simulation step         Convergence     Electron number  ETRS Iterations
 RTBSE|            1217     0.33687679E-007     0.10000000E+002                6
 RTBSE| Simulation step         Convergence     Electron number  ETRS Iterations
 RTBSE|            1218     0.33397970E-007     0.10000000E+002                6
 RTBSE| Simulation step         Convergence     Electron number  ETRS Iterations
 RTBSE|            1219     0.34062400E-007     0.10000000E+002                6
 RTBSE| Simulation step         Convergence     Electron number  ETRS Iterations
 RTBSE|            1220     0.34283503E-007     0.10000000E+002                6
 RTBSE| Simulation step         Convergence     Electron number  ETRS Iterations
 RTBSE|            1221     0.34090512E-007     0.10000000E+002                6
 RTBSE| Simulation step         Convergence     Electron number  ETRS Iterations
 RTBSE|            1222     0.33475001E-007     0.10000000E+002                6
 RTBSE| Simulation step         Convergence     Electron number  ETRS Iterations
 RTBSE|            1223     0.32478774E-007     0.10000000E+002                6
 RTBSE| Simulation step         Convergence     Electron number  ETRS Iterations
 RTBSE|            1224     0.31077834E-007     0.10000000E+002                6
 RTBSE| Simulation step         Convergence     Electron number  ETRS Iterations
 RTBSE|            1225     0.29293125E-007     0.10000000E+002                6
 RTBSE| Simulation step         Convergence     Electron number  ETRS Iterations
 RTBSE|            1226     0.27065869E-007     0.10000000E+002                6
 RTBSE| Simulation step         Convergence     Electron number  ETRS Iterations
 RTBSE|            1227     0.24383658E-007     0.10000000E+002                6
 RTBSE| Simulation step         Convergence     Electron number  ETRS Iterations
 RTBSE|            1228     0.21217765E-007     0.10000000E+002                6
 RTBSE| Simulation step         Convergence     Electron number  ETRS Iterations
 RTBSE|            1229     0.97314349E-007     0.10000000E+002                5
 RTBSE| Simulation step         Convergence     Electron number  ETRS Iterations
 RTBSE|            1230     0.83734970E-007     0.10000000E+002                5
 RTBSE| Simulation step         Convergence     Electron number  ETRS Iterations
 RTBSE|            1231     0.69383175E-007     0.10000000E+002                5
 RTBSE| Simulation step         Convergence     Electron number  ETRS Iterations
 RTBSE|            1232     0.64109533E-007     0.10000000E+002                5
 RTBSE| Simulation step         Convergence     Electron number  ETRS Iterations
 RTBSE|            1233     0.99671585E-007     0.10000000E+002                5
 RTBSE| Simulation step         Convergence     Electron number  ETRS Iterations
 RTBSE|            1234     0.18711060E-007     0.10000000E+002                6
 RTBSE| Simulation step         Convergence     Electron number  ETRS Iterations
 RTBSE|            1235     0.22697663E-007     0.10000000E+002                6
 RTBSE| Simulation step         Convergence     Electron number  ETRS Iterations
 RTBSE|            1236     0.26370063E-007     0.10000000E+002                6
 RTBSE| Simulation step         Convergence     Electron number  ETRS Iterations
 RTBSE|            1237     0.29568535E-007     0.10000000E+002                6
 RTBSE| Simulation step         Convergence     Electron number  ETRS Iterations
 RTBSE|            1238     0.32193622E-007     0.10000000E+002                6
 RTBSE| Simulation step         Convergence     Electron number  ETRS Iterations
 RTBSE|            1239     0.34172227E-007     0.10000000E+002                6
 RTBSE| Simulation step         Convergence     Electron number  ETRS Iterations
 RTBSE|            1240     0.35516914E-007     0.10000000E+002                6
 RTBSE| Simulation step         Convergence     Electron number  ETRS Iterations
 RTBSE|            1241     0.36205210E-007     0.10000000E+002                6
 RTBSE| Simulation step         Convergence     Electron number  ETRS Iterations
 RTBSE|            1242     0.36288202E-007     0.10000000E+002                6
 RTBSE| Simulation step         Convergence     Electron number  ETRS Iterations
 RTBSE|            1243     0.36742050E-007     0.10000000E+002                6
 RTBSE| Simulation step         Convergence     Electron number  ETRS Iterations
 RTBSE|            1244     0.37240205E-007     0.10000000E+002                6
 RTBSE| Simulation step         Convergence     Electron number  ETRS Iterations
 RTBSE|            1245     0.37216573E-007     0.10000000E+002                6
 RTBSE| Simulation step         Convergence     Electron number  ETRS Iterations
 RTBSE|            1246     0.36781098E-007     0.10000000E+002                6
 RTBSE| Simulation step         Convergence     Electron number  ETRS Iterations
 RTBSE|            1247     0.35960145E-007     0.10000000E+002                6
 RTBSE| Simulation step         Convergence     Electron number  ETRS Iterations
 RTBSE|            1248     0.34776724E-007     0.10000000E+002                6
 RTBSE| Simulation step         Convergence     Electron number  ETRS Iterations
 RTBSE|            1249     0.33265864E-007     0.10000000E+002                6
 RTBSE| Simulation step         Convergence     Electron number  ETRS Iterations
 RTBSE|            1250     0.31433154E-007     0.10000000E+002                6
 RTBSE| Simulation step         Convergence     Electron number  ETRS Iterations
 RTBSE|            1251     0.29250257E-007     0.10000000E+002                6
 RTBSE| Simulation step         Convergence     Electron number  ETRS Iterations
 RTBSE|            1252     0.26716028E-007     0.10000000E+002                6
 RTBSE| Simulation step         Convergence     Electron number  ETRS Iterations
 RTBSE|            1253     0.23813977E-007     0.10000000E+002                6
 RTBSE| Simulation step         Convergence     Electron number  ETRS Iterations
 RTBSE|            1254     0.20529042E-007     0.10000000E+002                6
 RTBSE| Simulation step         Convergence     Electron number  ETRS Iterations
 RTBSE|            1255     0.96037103E-007     0.10000000E+002                5
 RTBSE| Simulation step         Convergence     Electron number  ETRS Iterations
 RTBSE|            1256     0.80954593E-007     0.10000000E+002                5
 RTBSE| Simulation step         Convergence     Electron number  ETRS Iterations
 RTBSE|            1257     0.66410878E-007     0.10000000E+002                5
 RTBSE| Simulation step         Convergence     Electron number  ETRS Iterations
 RTBSE|            1258     0.58202158E-007     0.10000000E+002                5
 RTBSE| Simulation step         Convergence     Electron number  ETRS Iterations
 RTBSE|            1259     0.92070760E-007     0.10000000E+002                5
 RTBSE| Simulation step         Convergence     Electron number  ETRS Iterations
 RTBSE|            1260     0.17016307E-007     0.10000000E+002                6
 RTBSE| Simulation step         Convergence     Electron number  ETRS Iterations
 RTBSE|            1261     0.20750743E-007     0.10000000E+002                6
 RTBSE| Simulation step         Convergence     Electron number  ETRS Iterations
 RTBSE|            1262     0.24135028E-007     0.10000000E+002                6
 RTBSE| Simulation step         Convergence     Electron number  ETRS Iterations
 RTBSE|            1263     0.27051595E-007     0.10000000E+002                6
 RTBSE| Simulation step         Convergence     Electron number  ETRS Iterations
 RTBSE|            1264     0.29447640E-007     0.10000000E+002                6
 RTBSE| Simulation step         Convergence     Electron number  ETRS Iterations
 RTBSE|            1265     0.31237201E-007     0.10000000E+002                6
 RTBSE| Simulation step         Convergence     Electron number  ETRS Iterations
 RTBSE|            1266     0.32464426E-007     0.10000000E+002                6
 RTBSE| Simulation step         Convergence     Electron number  ETRS Iterations
 RTBSE|            1267     0.33154545E-007     0.10000000E+002                6
 RTBSE| Simulation step         Convergence     Electron number  ETRS Iterations
 RTBSE|            1268     0.33284048E-007     0.10000000E+002                6
 RTBSE| Simulation step         Convergence     Electron number  ETRS Iterations
 RTBSE|            1269     0.32962714E-007     0.10000000E+002                6
 RTBSE| Simulation step         Convergence     Electron number  ETRS Iterations
 RTBSE|            1270     0.33515298E-007     0.10000000E+002                6
 RTBSE| Simulation step         Convergence     Electron number  ETRS Iterations
 RTBSE|            1271     0.33811418E-007     0.10000000E+002                6
 RTBSE| Simulation step         Convergence     Electron number  ETRS Iterations
 RTBSE|            1272     0.33710014E-007     0.10000000E+002                6
 RTBSE| Simulation step         Convergence     Electron number  ETRS Iterations
 RTBSE|            1273     0.33254408E-007     0.10000000E+002                6
 RTBSE| Simulation step         Convergence     Electron number  ETRS Iterations
 RTBSE|            1274     0.32460279E-007     0.10000000E+002                6
 RTBSE| Simulation step         Convergence     Electron number  ETRS Iterations
 RTBSE|            1275     0.31283686E-007     0.10000000E+002                6
 RTBSE| Simulation step         Convergence     Electron number  ETRS Iterations
 RTBSE|            1276     0.29704459E-007     0.10000000E+002                6
 RTBSE| Simulation step         Convergence     Electron number  ETRS Iterations
 RTBSE|            1277     0.27679597E-007     0.10000000E+002                6
 RTBSE| Simulation step         Convergence     Electron number  ETRS Iterations
 RTBSE|            1278     0.25197489E-007     0.10000000E+002                6
 RTBSE| Simulation step         Convergence     Electron number  ETRS Iterations
 RTBSE|            1279     0.22197921E-007     0.10000000E+002                6
 RTBSE| Simulation step         Convergence     Electron number  ETRS Iterations
 RTBSE|            1280     0.18678869E-007     0.10000000E+002                6
 RTBSE| Simulation step         Convergence     Electron number  ETRS Iterations
 RTBSE|            1281     0.87836455E-007     0.10000000E+002                5
 RTBSE| Simulation step         Convergence     Electron number  ETRS Iterations
 RTBSE|            1282     0.73079940E-007     0.10000000E+002                5
 RTBSE| Simulation step         Convergence     Electron number  ETRS Iterations
 RTBSE|            1283     0.61104970E-007     0.10000000E+002                5
 RTBSE| Simulation step         Convergence     Electron number  ETRS Iterations
 RTBSE|            1284     0.92563367E-007     0.10000000E+002                5
 RTBSE| Simulation step         Convergence     Electron number  ETRS Iterations
 RTBSE|            1285     0.17997478E-007     0.10000000E+002                6
 RTBSE| Simulation step         Convergence     Electron number  ETRS Iterations
 RTBSE|            1286     0.22087982E-007     0.10000000E+002                6
 RTBSE| Simulation step         Convergence     Electron number  ETRS Iterations
 RTBSE|            1287     0.25855633E-007     0.10000000E+002                6
 RTBSE| Simulation step         Convergence     Electron number  ETRS Iterations
 RTBSE|            1288     0.29127052E-007     0.10000000E+002                6
 RTBSE| Simulation step         Convergence     Electron number  ETRS Iterations
 RTBSE|            1289     0.31821455E-007     0.10000000E+002                6
 RTBSE| Simulation step         Convergence     Electron number  ETRS Iterations
 RTBSE|            1290     0.33911536E-007     0.10000000E+002                6
 RTBSE| Simulation step         Convergence     Electron number  ETRS Iterations
 RTBSE|            1291     0.35292296E-007     0.10000000E+002                6
 RTBSE| Simulation step         Convergence     Electron number  ETRS Iterations
 RTBSE|            1292     0.36028451E-007     0.10000000E+002                6
 RTBSE| Simulation step         Convergence     Electron number  ETRS Iterations
 RTBSE|            1293     0.36151464E-007     0.10000000E+002                6
 RTBSE| Simulation step         Convergence     Electron number  ETRS Iterations
 RTBSE|            1294     0.36432905E-007     0.10000000E+002                6
 RTBSE| Simulation step         Convergence     Electron number  ETRS Iterations
 RTBSE|            1295     0.36967961E-007     0.10000000E+002                6
 RTBSE| Simulation step         Convergence     Electron number  ETRS Iterations
 RTBSE|            1296     0.37032656E-007     0.10000000E+002                6
 RTBSE| Simulation step         Convergence     Electron number  ETRS Iterations
 RTBSE|            1297     0.36654902E-007     0.10000000E+002                6
 RTBSE| Simulation step         Convergence     Electron number  ETRS Iterations
 RTBSE|            1298     0.35913807E-007     0.10000000E+002                6
 RTBSE| Simulation step         Convergence     Electron number  ETRS Iterations
 RTBSE|            1299     0.34832159E-007     0.10000000E+002                6
 RTBSE| Simulation step         Convergence     Electron number  ETRS Iterations
 RTBSE|            1300     0.33445915E-007     0.10000000E+002                6
 RTBSE| Simulation step         Convergence     Electron number  ETRS Iterations
 RTBSE|            1301     0.31766643E-007     0.10000000E+002                6
 RTBSE| Simulation step         Convergence     Electron number  ETRS Iterations
 RTBSE|            1302     0.29717617E-007     0.10000000E+002                6
 RTBSE| Simulation step         Convergence     Electron number  ETRS Iterations
 RTBSE|            1303     0.27315987E-007     0.10000000E+002                6
 RTBSE| Simulation step         Convergence     Electron number  ETRS Iterations
 RTBSE|            1304     0.24528932E-007     0.10000000E+002                6
 RTBSE| Simulation step         Convergence     Electron number  ETRS Iterations
 RTBSE|            1305     0.21341529E-007     0.10000000E+002                6
 RTBSE| Simulation step         Convergence     Electron number  ETRS Iterations
 RTBSE|            1306     0.99658763E-007     0.10000000E+002                5
 RTBSE| Simulation step         Convergence     Electron number  ETRS Iterations
 RTBSE|            1307     0.84618988E-007     0.10000000E+002                5
 RTBSE| Simulation step         Convergence     Electron number  ETRS Iterations
 RTBSE|            1308     0.69671047E-007     0.10000000E+002                5
 RTBSE| Simulation step         Convergence     Electron number  ETRS Iterations
 RTBSE|            1309     0.57115939E-007     0.10000000E+002                5
 RTBSE| Simulation step         Convergence     Electron number  ETRS Iterations
 RTBSE|            1310     0.85728729E-007     0.10000000E+002                5
 RTBSE| Simulation step         Convergence     Electron number  ETRS Iterations
 RTBSE|            1311     0.16365783E-007     0.10000000E+002                6
 RTBSE| Simulation step         Convergence     Electron number  ETRS Iterations
 RTBSE|            1312     0.20140695E-007     0.10000000E+002                6
 RTBSE| Simulation step         Convergence     Electron number  ETRS Iterations
 RTBSE|            1313     0.23600635E-007     0.10000000E+002                6
 RTBSE| Simulation step         Convergence     Electron number  ETRS Iterations
 RTBSE|            1314     0.26582328E-007     0.10000000E+002                6
 RTBSE| Simulation step         Convergence     Electron number  ETRS Iterations
 RTBSE|            1315     0.29039451E-007     0.10000000E+002                6
 RTBSE| Simulation step         Convergence     Electron number  ETRS Iterations
 RTBSE|            1316     0.30919683E-007     0.10000000E+002                6
 RTBSE| Simulation step         Convergence     Electron number  ETRS Iterations
 RTBSE|            1317     0.32226984E-007     0.10000000E+002                6
 RTBSE| Simulation step         Convergence     Electron number  ETRS Iterations
 RTBSE|            1318     0.32955465E-007     0.10000000E+002                6
 RTBSE| Simulation step         Convergence     Electron number  ETRS Iterations
 RTBSE|            1319     0.33177124E-007     0.10000000E+002                6
 RTBSE| Simulation step         Convergence     Electron number  ETRS Iterations
 RTBSE|            1320     0.32943195E-007     0.10000000E+002                6
 RTBSE| Simulation step         Convergence     Electron number  ETRS Iterations
 RTBSE|            1321     0.33254968E-007     0.10000000E+002                6
 RTBSE| Simulation step         Convergence     Electron number  ETRS Iterations
 RTBSE|            1322     0.33661603E-007     0.10000000E+002                6
 RTBSE| Simulation step         Convergence     Electron number  ETRS Iterations
 RTBSE|            1323     0.33706060E-007     0.10000000E+002                6
 RTBSE| Simulation step         Convergence     Electron number  ETRS Iterations
 RTBSE|            1324     0.33407560E-007     0.10000000E+002                6
 RTBSE| Simulation step         Convergence     Electron number  ETRS Iterations
 RTBSE|            1325     0.32753996E-007     0.10000000E+002                6
 RTBSE| Simulation step         Convergence     Electron number  ETRS Iterations
 RTBSE|            1326     0.31718069E-007     0.10000000E+002                6
 RTBSE| Simulation step         Convergence     Electron number  ETRS Iterations
 RTBSE|            1327     0.30292542E-007     0.10000000E+002                6
 RTBSE| Simulation step         Convergence     Electron number  ETRS Iterations
 RTBSE|            1328     0.28410425E-007     0.10000000E+002                6
 RTBSE| Simulation step         Convergence     Electron number  ETRS Iterations
 RTBSE|            1329     0.26035516E-007     0.10000000E+002                6
 RTBSE| Simulation step         Convergence     Electron number  ETRS Iterations
 RTBSE|            1330     0.23124584E-007     0.10000000E+002                6
 RTBSE| Simulation step         Convergence     Electron number  ETRS Iterations
 RTBSE|            1331     0.19633100E-007     0.10000000E+002                6
 RTBSE| Simulation step         Convergence     Electron number  ETRS Iterations
 RTBSE|            1332     0.91365919E-007     0.10000000E+002                5
 RTBSE| Simulation step         Convergence     Electron number  ETRS Iterations
 RTBSE|            1333     0.76507985E-007     0.10000000E+002                5
 RTBSE| Simulation step         Convergence     Electron number  ETRS Iterations
 RTBSE|            1334     0.63352271E-007     0.10000000E+002                5
 RTBSE| Simulation step         Convergence     Electron number  ETRS Iterations
 RTBSE|            1335     0.87952485E-007     0.10000000E+002                5
 RTBSE| Simulation step         Convergence     Electron number  ETRS Iterations
 RTBSE|            1336     0.17546903E-007     0.10000000E+002                6
 RTBSE| Simulation step         Convergence     Electron number  ETRS Iterations
 RTBSE|            1337     0.21735630E-007     0.10000000E+002                6
 RTBSE| Simulation step         Convergence     Electron number  ETRS Iterations
 RTBSE|            1338     0.25566332E-007     0.10000000E+002                6
 RTBSE| Simulation step         Convergence     Electron number  ETRS Iterations
 RTBSE|            1339     0.28935047E-007     0.10000000E+002                6
 RTBSE| Simulation step         Convergence     Electron number  ETRS Iterations
 RTBSE|            1340     0.31671266E-007     0.10000000E+002                6
 RTBSE| Simulation step         Convergence     Electron number  ETRS Iterations
 RTBSE|            1341     0.33765427E-007     0.10000000E+002                6
 RTBSE| Simulation step         Convergence     Electron number  ETRS Iterations
 RTBSE|            1342     0.35176675E-007     0.10000000E+002                6
 RTBSE| Simulation step         Convergence     Electron number  ETRS Iterations
 RTBSE|            1343     0.35884939E-007     0.10000000E+002                6
 RTBSE| Simulation step         Convergence     Electron number  ETRS Iterations
 RTBSE|            1344     0.35983536E-007     0.10000000E+002                6
 RTBSE| Simulation step         Convergence     Electron number  ETRS Iterations
 RTBSE|            1345     0.36120831E-007     0.10000000E+002                6
 RTBSE| Simulation step         Convergence     Electron number  ETRS Iterations
 RTBSE|            1346     0.36635270E-007     0.10000000E+002                6
 RTBSE| Simulation step         Convergence     Electron number  ETRS Iterations
 RTBSE|            1347     0.36668959E-007     0.10000000E+002                6
 RTBSE| Simulation step         Convergence     Electron number  ETRS Iterations
 RTBSE|            1348     0.36323708E-007     0.10000000E+002                6
 RTBSE| Simulation step         Convergence     Electron number  ETRS Iterations
 RTBSE|            1349     0.35634948E-007     0.10000000E+002                6
 RTBSE| Simulation step         Convergence     Electron number  ETRS Iterations
 RTBSE|            1350     0.34657984E-007     0.10000000E+002                6
 RTBSE| Simulation step         Convergence     Electron number  ETRS Iterations
 RTBSE|            1351     0.33389727E-007     0.10000000E+002                6
 RTBSE| Simulation step         Convergence     Electron number  ETRS Iterations
 RTBSE|            1352     0.31833337E-007     0.10000000E+002                6
 RTBSE| Simulation step         Convergence     Electron number  ETRS Iterations
 RTBSE|            1353     0.29948031E-007     0.10000000E+002                6
 RTBSE| Simulation step         Convergence     Electron number  ETRS Iterations
 RTBSE|            1354     0.27725138E-007     0.10000000E+002                6
 RTBSE| Simulation step         Convergence     Electron number  ETRS Iterations
 RTBSE|            1355     0.25108564E-007     0.10000000E+002                6
 RTBSE| Simulation step         Convergence     Electron number  ETRS Iterations
 RTBSE|            1356     0.22062775E-007     0.10000000E+002                6
 RTBSE| Simulation step         Convergence     Electron number  ETRS Iterations
 RTBSE|            1357     0.18605311E-007     0.10000000E+002                6
 RTBSE| Simulation step         Convergence     Electron number  ETRS Iterations
 RTBSE|            1358     0.88135460E-007     0.10000000E+002                5
 RTBSE| Simulation step         Convergence     Electron number  ETRS Iterations
 RTBSE|            1359     0.72928907E-007     0.10000000E+002                5
 RTBSE| Simulation step         Convergence     Electron number  ETRS Iterations
 RTBSE|            1360     0.59526028E-007     0.10000000E+002                5
 RTBSE| Simulation step         Convergence     Electron number  ETRS Iterations
 RTBSE|            1361     0.79034861E-007     0.10000000E+002                5
 RTBSE| Simulation step         Convergence     Electron number  ETRS Iterations
 RTBSE|            1362     0.15648988E-007     0.10000000E+002                6
 RTBSE| Simulation step         Convergence     Electron number  ETRS Iterations
 RTBSE|            1363     0.19514177E-007     0.10000000E+002                6
 RTBSE| Simulation step         Convergence     Electron number  ETRS Iterations
 RTBSE|            1364     0.23029004E-007     0.10000000E+002                6
 RTBSE| Simulation step         Convergence     Electron number  ETRS Iterations
 RTBSE|            1365     0.26111691E-007     0.10000000E+002                6
 RTBSE| Simulation step         Convergence     Electron number  ETRS Iterations
 RTBSE|            1366     0.28660105E-007     0.10000000E+002                6
 RTBSE| Simulation step         Convergence     Electron number  ETRS Iterations
 RTBSE|            1367     0.30620167E-007     0.10000000E+002                6
 RTBSE| Simulation step         Convergence     Electron number  ETRS Iterations
 RTBSE|            1368     0.32007310E-007     0.10000000E+002                6
 RTBSE| Simulation step         Convergence     Electron number  ETRS Iterations
 RTBSE|            1369     0.32817850E-007     0.10000000E+002                6
 RTBSE| Simulation step         Convergence     Electron number  ETRS Iterations
 RTBSE|            1370     0.33133646E-007     0.10000000E+002                6
 RTBSE| Simulation step         Convergence     Electron number  ETRS Iterations
 RTBSE|            1371     0.32948185E-007     0.10000000E+002                6
 RTBSE| Simulation step         Convergence     Electron number  ETRS Iterations
 RTBSE|            1372     0.33102643E-007     0.10000000E+002                6
 RTBSE| Simulation step         Convergence     Electron number  ETRS Iterations
 RTBSE|            1373     0.33594270E-007     0.10000000E+002                6
 RTBSE| Simulation step         Convergence     Electron number  ETRS Iterations
 RTBSE|            1374     0.33711532E-007     0.10000000E+002                6
 RTBSE| Simulation step         Convergence     Electron number  ETRS Iterations
 RTBSE|            1375     0.33491672E-007     0.10000000E+002                6
 RTBSE| Simulation step         Convergence     Electron number  ETRS Iterations
 RTBSE|            1376     0.32926621E-007     0.10000000E+002                6
 RTBSE| Simulation step         Convergence     Electron number  ETRS Iterations
 RTBSE|            1377     0.32007919E-007     0.10000000E+002                6
 RTBSE| Simulation step         Convergence     Electron number  ETRS Iterations
 RTBSE|            1378     0.30650580E-007     0.10000000E+002                6
 RTBSE| Simulation step         Convergence     Electron number  ETRS Iterations
 RTBSE|            1379     0.28846727E-007     0.10000000E+002                6
 RTBSE| Simulation step         Convergence     Electron number  ETRS Iterations
 RTBSE|            1380     0.26526374E-007     0.10000000E+002                6
 RTBSE| Simulation step         Convergence     Electron number  ETRS Iterations
 RTBSE|            1381     0.23664107E-007     0.10000000E+002                6
 RTBSE| Simulation step         Convergence     Electron number  ETRS Iterations
 RTBSE|            1382     0.20247063E-007     0.10000000E+002                6
 RTBSE| Simulation step         Convergence     Electron number  ETRS Iterations
 RTBSE|            1383     0.93536724E-007     0.10000000E+002                5
 RTBSE| Simulation step         Convergence     Electron number  ETRS Iterations
 RTBSE|            1384     0.78691825E-007     0.10000000E+002                5
 RTBSE| Simulation step         Convergence     Electron number  ETRS Iterations
 RTBSE|            1385     0.64568178E-007     0.10000000E+002                5
 RTBSE| Simulation step         Convergence     Electron number  ETRS Iterations
 RTBSE|            1386     0.83392428E-007     0.10000000E+002                5
 RTBSE| Simulation step         Convergence     Electron number  ETRS Iterations
 RTBSE|            1387     0.16988422E-007     0.10000000E+002                6
 RTBSE| Simulation step         Convergence     Electron number  ETRS Iterations
 RTBSE|            1388     0.21150007E-007     0.10000000E+002                6
 RTBSE| Simulation step         Convergence     Electron number  ETRS Iterations
 RTBSE|            1389     0.24988122E-007     0.10000000E+002                6
 RTBSE| Simulation step         Convergence     Electron number  ETRS Iterations
 RTBSE|            1390     0.28348042E-007     0.10000000E+002                6
 RTBSE| Simulation step         Convergence     Electron number  ETRS Iterations
 RTBSE|            1391     0.31075950E-007     0.10000000E+002                6
 RTBSE| Simulation step         Convergence     Electron number  ETRS Iterations
 RTBSE|            1392     0.33137536E-007     0.10000000E+002                6
 RTBSE| Simulation step         Convergence     Electron number  ETRS Iterations
 RTBSE|            1393     0.34517352E-007     0.10000000E+002                6
 RTBSE| Simulation step         Convergence     Electron number  ETRS Iterations
 RTBSE|            1394     0.35227259E-007     0.10000000E+002                6
 RTBSE| Simulation step         Convergence     Electron number  ETRS Iterations
 RTBSE|            1395     0.35384664E-007     0.10000000E+002                6
 RTBSE| Simulation step         Convergence     Electron number  ETRS Iterations
 RTBSE|            1396     0.35290603E-007     0.10000000E+002                6
 RTBSE| Simulation step         Convergence     Electron number  ETRS Iterations
 RTBSE|            1397     0.35842180E-007     0.10000000E+002                6
 RTBSE| Simulation step         Convergence     Electron number  ETRS Iterations
 RTBSE|            1398     0.35954961E-007     0.10000000E+002                6
 RTBSE| Simulation step         Convergence     Electron number  ETRS Iterations
 RTBSE|            1399     0.35721821E-007     0.10000000E+002                6
 RTBSE| Simulation step         Convergence     Electron number  ETRS Iterations
 RTBSE|            1400     0.35209878E-007     0.10000000E+002                6
 RTBSE| Simulation step         Convergence     Electron number  ETRS Iterations
 RTBSE|            1401     0.34450884E-007     0.10000000E+002                6
 RTBSE| Simulation step         Convergence     Electron number  ETRS Iterations
 RTBSE|            1402     0.33419977E-007     0.10000000E+002                6
 RTBSE| Simulation step         Convergence     Electron number  ETRS Iterations
 RTBSE|            1403     0.32119231E-007     0.10000000E+002                6
 RTBSE| Simulation step         Convergence     Electron number  ETRS Iterations
 RTBSE|            1404     0.30517984E-007     0.10000000E+002                6
 RTBSE| Simulation step         Convergence     Electron number  ETRS Iterations
 RTBSE|            1405     0.28524455E-007     0.10000000E+002                6
 RTBSE| Simulation step         Convergence     Electron number  ETRS Iterations
 RTBSE|            1406     0.26104549E-007     0.10000000E+002                6
 RTBSE| Simulation step         Convergence     Electron number  ETRS Iterations
 RTBSE|            1407     0.23221930E-007     0.10000000E+002                6
 RTBSE| Simulation step         Convergence     Electron number  ETRS Iterations
 RTBSE|            1408     0.19870924E-007     0.10000000E+002                6
 RTBSE| Simulation step         Convergence     Electron number  ETRS Iterations
 RTBSE|            1409     0.93650975E-007     0.10000000E+002                5
 RTBSE| Simulation step         Convergence     Electron number  ETRS Iterations
 RTBSE|            1410     0.78059441E-007     0.10000000E+002                5
 RTBSE| Simulation step         Convergence     Electron number  ETRS Iterations
 RTBSE|            1411     0.63507239E-007     0.10000000E+002                5
 RTBSE| Simulation step         Convergence     Electron number  ETRS Iterations
 RTBSE|            1412     0.71700017E-007     0.10000000E+002                5
 RTBSE| Simulation step         Convergence     Electron number  ETRS Iterations
 RTBSE|            1413     0.14934537E-007     0.10000000E+002                6
 RTBSE| Simulation step         Convergence     Electron number  ETRS Iterations
 RTBSE|            1414     0.18932976E-007     0.10000000E+002                6
 RTBSE| Simulation step         Convergence     Electron number  ETRS Iterations
 RTBSE|            1415     0.22623551E-007     0.10000000E+002                6
 RTBSE| Simulation step         Convergence     Electron number  ETRS Iterations
 RTBSE|            1416     0.25855225E-007     0.10000000E+002                6
 RTBSE| Simulation step         Convergence     Electron number  ETRS Iterations
 RTBSE|            1417     0.28514214E-007     0.10000000E+002                6
 RTBSE| Simulation step         Convergence     Electron number  ETRS Iterations
 RTBSE|            1418     0.30579905E-007     0.10000000E+002                6
 RTBSE| Simulation step         Convergence     Electron number  ETRS Iterations
 RTBSE|            1419     0.32023975E-007     0.10000000E+002                6
 RTBSE| Simulation step         Convergence     Electron number  ETRS Iterations
 RTBSE|            1420     0.32894191E-007     0.10000000E+002                6
 RTBSE| Simulation step         Convergence     Electron number  ETRS Iterations
 RTBSE|            1421     0.33219533E-007     0.10000000E+002                6
 RTBSE| Simulation step         Convergence     Electron number  ETRS Iterations
 RTBSE|            1422     0.33062502E-007     0.10000000E+002                6
 RTBSE| Simulation step         Convergence     Electron number  ETRS Iterations
 RTBSE|            1423     0.33056145E-007     0.10000000E+002                6
 RTBSE| Simulation step         Convergence     Electron number  ETRS Iterations
 RTBSE|            1424     0.33556861E-007     0.10000000E+002                6
 RTBSE| Simulation step         Convergence     Electron number  ETRS Iterations
 RTBSE|            1425     0.33701778E-007     0.10000000E+002                6
 RTBSE| Simulation step         Convergence     Electron number  ETRS Iterations
 RTBSE|            1426     0.33512892E-007     0.10000000E+002                6
 RTBSE| Simulation step         Convergence     Electron number  ETRS Iterations
 RTBSE|            1427     0.32979505E-007     0.10000000E+002                6
 RTBSE| Simulation step         Convergence     Electron number  ETRS Iterations
 RTBSE|            1428     0.32118939E-007     0.10000000E+002                6
 RTBSE| Simulation step         Convergence     Electron number  ETRS Iterations
 RTBSE|            1429     0.30851573E-007     0.10000000E+002                6
 RTBSE| Simulation step         Convergence     Electron number  ETRS Iterations
 RTBSE|            1430     0.29139004E-007     0.10000000E+002                6
 RTBSE| Simulation step         Convergence     Electron number  ETRS Iterations
 RTBSE|            1431     0.26931484E-007     0.10000000E+002                6
 RTBSE| Simulation step         Convergence     Electron number  ETRS Iterations
 RTBSE|            1432     0.24173096E-007     0.10000000E+002                6
 RTBSE| Simulation step         Convergence     Electron number  ETRS Iterations
 RTBSE|            1433     0.20831911E-007     0.10000000E+002                6
 RTBSE| Simulation step         Convergence     Electron number  ETRS Iterations
 RTBSE|            1434     0.95587304E-007     0.10000000E+002                5
 RTBSE| Simulation step         Convergence     Electron number  ETRS Iterations
 RTBSE|            1435     0.81008234E-007     0.10000000E+002                5
 RTBSE| Simulation step         Convergence     Electron number  ETRS Iterations
 RTBSE|            1436     0.66255387E-007     0.10000000E+002                5
 RTBSE| Simulation step         Convergence     Electron number  ETRS Iterations
 RTBSE|            1437     0.77189105E-007     0.10000000E+002                5
 RTBSE| Simulation step         Convergence     Electron number  ETRS Iterations
 RTBSE|            1438     0.16210188E-007     0.10000000E+002                6
 RTBSE| Simulation step         Convergence     Electron number  ETRS Iterations
 RTBSE|            1439     0.20387084E-007     0.10000000E+002                6
 RTBSE| Simulation step         Convergence     Electron number  ETRS Iterations
 RTBSE|            1440     0.24247766E-007     0.10000000E+002                6
 RTBSE| Simulation step         Convergence     Electron number  ETRS Iterations
 RTBSE|            1441     0.27638591E-007     0.10000000E+002                6
 RTBSE| Simulation step         Convergence     Electron number  ETRS Iterations
 RTBSE|            1442     0.30388728E-007     0.10000000E+002                6
 RTBSE| Simulation step         Convergence     Electron number  ETRS Iterations
 RTBSE|            1443     0.32514528E-007     0.10000000E+002                6
 RTBSE| Simulation step         Convergence     Electron number  ETRS Iterations
 RTBSE|            1444     0.33920177E-007     0.10000000E+002                6
 RTBSE| Simulation step         Convergence     Electron number  ETRS Iterations
 RTBSE|            1445     0.34721480E-007     0.10000000E+002                6
 RTBSE| Simulation step         Convergence     Electron number  ETRS Iterations
 RTBSE|            1446     0.34947576E-007     0.10000000E+002                6
 RTBSE| Simulation step         Convergence     Electron number  ETRS Iterations
 RTBSE|            1447     0.34715108E-007     0.10000000E+002                6
 RTBSE| Simulation step         Convergence     Electron number  ETRS Iterations
 RTBSE|            1448     0.35256390E-007     0.10000000E+002                6
 RTBSE| Simulation step         Convergence     Electron number  ETRS Iterations
 RTBSE|            1449     0.35532432E-007     0.10000000E+002                6
 RTBSE| Simulation step         Convergence     Electron number  ETRS Iterations
 RTBSE|            1450     0.35488254E-007     0.10000000E+002                6
 RTBSE| Simulation step         Convergence     Electron number  ETRS Iterations
 RTBSE|            1451     0.35184282E-007     0.10000000E+002                6
 RTBSE| Simulation step         Convergence     Electron number  ETRS Iterations
 RTBSE|            1452     0.34649873E-007     0.10000000E+002                6
 RTBSE| Simulation step         Convergence     Electron number  ETRS Iterations
 RTBSE|            1453     0.33854310E-007     0.10000000E+002                6
 RTBSE| Simulation step         Convergence     Electron number  ETRS Iterations
 RTBSE|            1454     0.32796690E-007     0.10000000E+002                6
 RTBSE| Simulation step         Convergence     Electron number  ETRS Iterations
 RTBSE|            1455     0.31383731E-007     0.10000000E+002                6
 RTBSE| Simulation step         Convergence     Electron number  ETRS Iterations
 RTBSE|            1456     0.29573118E-007     0.10000000E+002                6
 RTBSE| Simulation step         Convergence     Electron number  ETRS Iterations
 RTBSE|            1457     0.27290109E-007     0.10000000E+002                6
 RTBSE| Simulation step         Convergence     Electron number  ETRS Iterations
 RTBSE|            1458     0.24478843E-007     0.10000000E+002                6
 RTBSE| Simulation step         Convergence     Electron number  ETRS Iterations
 RTBSE|            1459     0.21150163E-007     0.10000000E+002                6
 RTBSE| Simulation step         Convergence     Electron number  ETRS Iterations
 RTBSE|            1460     0.99198127E-007     0.10000000E+002                5
 RTBSE| Simulation step         Convergence     Electron number  ETRS Iterations
 RTBSE|            1461     0.82932790E-007     0.10000000E+002                5
 RTBSE| Simulation step         Convergence     Electron number  ETRS Iterations
 RTBSE|            1462     0.67287695E-007     0.10000000E+002                5
 RTBSE| Simulation step         Convergence     Electron number  ETRS Iterations
 RTBSE|            1463     0.67028918E-007     0.10000000E+002                5
 RTBSE| Simulation step         Convergence     Electron number  ETRS Iterations
 RTBSE|            1464     0.14624432E-007     0.10000000E+002                6
 RTBSE| Simulation step         Convergence     Electron number  ETRS Iterations
 RTBSE|            1465     0.18771376E-007     0.10000000E+002                6
 RTBSE| Simulation step         Convergence     Electron number  ETRS Iterations
 RTBSE|            1466     0.22565983E-007     0.10000000E+002                6
 RTBSE| Simulation step         Convergence     Electron number  ETRS Iterations
 RTBSE|            1467     0.25898886E-007     0.10000000E+002                6
 RTBSE| Simulation step         Convergence     Electron number  ETRS Iterations
 RTBSE|            1468     0.28613270E-007     0.10000000E+002                6
 RTBSE| Simulation step         Convergence     Electron number  ETRS Iterations
 RTBSE|            1469     0.30673160E-007     0.10000000E+002                6
 RTBSE| Simulation step         Convergence     Electron number  ETRS Iterations
 RTBSE|            1470     0.32136722E-007     0.10000000E+002                6
 RTBSE| Simulation step         Convergence     Electron number  ETRS Iterations
 RTBSE|            1471     0.32989514E-007     0.10000000E+002                6
 RTBSE| Simulation step         Convergence     Electron number  ETRS Iterations
 RTBSE|            1472     0.33260640E-007     0.10000000E+002                6
 RTBSE| Simulation step         Convergence     Electron number  ETRS Iterations
 RTBSE|            1473     0.33040825E-007     0.10000000E+002                6
 RTBSE| Simulation step         Convergence     Electron number  ETRS Iterations
 RTBSE|            1474     0.32900078E-007     0.10000000E+002                6
 RTBSE| Simulation step         Convergence     Electron number  ETRS Iterations
 RTBSE|            1475     0.33360536E-007     0.10000000E+002                6
 RTBSE| Simulation step         Convergence     Electron number  ETRS Iterations
 RTBSE|            1476     0.33473789E-007     0.10000000E+002                6
 RTBSE| Simulation step         Convergence     Electron number  ETRS Iterations
 RTBSE|            1477     0.33288663E-007     0.10000000E+002                6
 RTBSE| Simulation step         Convergence     Electron number  ETRS Iterations
 RTBSE|            1478     0.32794547E-007     0.10000000E+002                6
 RTBSE| Simulation step         Convergence     Electron number  ETRS Iterations
 RTBSE|            1479     0.31965665E-007     0.10000000E+002                6
 RTBSE| Simulation step         Convergence     Electron number  ETRS Iterations
 RTBSE|            1480     0.30779516E-007     0.10000000E+002                6
 RTBSE| Simulation step         Convergence     Electron number  ETRS Iterations
 RTBSE|            1481     0.29174618E-007     0.10000000E+002                6
 RTBSE| Simulation step         Convergence     Electron number  ETRS Iterations
 RTBSE|            1482     0.27078856E-007     0.10000000E+002                6
 RTBSE| Simulation step         Convergence     Electron number  ETRS Iterations
 RTBSE|            1483     0.24444907E-007     0.10000000E+002                6
 RTBSE| Simulation step         Convergence     Electron number  ETRS Iterations
 RTBSE|            1484     0.21230284E-007     0.10000000E+002                6
 RTBSE| Simulation step         Convergence     Electron number  ETRS Iterations
 RTBSE|            1485     0.97221631E-007     0.10000000E+002                5
 RTBSE| Simulation step         Convergence     Electron number  ETRS Iterations
 RTBSE|            1486     0.82901706E-007     0.10000000E+002                5
 RTBSE| Simulation step         Convergence     Electron number  ETRS Iterations
 RTBSE|            1487     0.67765856E-007     0.10000000E+002                5
 RTBSE| Simulation step         Convergence     Electron number  ETRS Iterations
 RTBSE|            1488     0.70828518E-007     0.10000000E+002                5
 RTBSE| Simulation step         Convergence     Electron number  ETRS Iterations
 RTBSE|            1489     0.15418435E-007     0.10000000E+002                6
 RTBSE| Simulation step         Convergence     Electron number  ETRS Iterations
 RTBSE|            1490     0.19547304E-007     0.10000000E+002                6
 RTBSE| Simulation step         Convergence     Electron number  ETRS Iterations
 RTBSE|            1491     0.23413167E-007     0.10000000E+002                6
 RTBSE| Simulation step         Convergence     Electron number  ETRS Iterations
 RTBSE|            1492     0.26809779E-007     0.10000000E+002                6
 RTBSE| Simulation step         Convergence     Electron number  ETRS Iterations
 RTBSE|            1493     0.29623141E-007     0.10000000E+002                6
 RTBSE| Simulation step         Convergence     Electron number  ETRS Iterations
 RTBSE|            1494     0.31776772E-007     0.10000000E+002                6
 RTBSE| Simulation step         Convergence     Electron number  ETRS Iterations
 RTBSE|            1495     0.33281587E-007     0.10000000E+002                6
 RTBSE| Simulation step         Convergence     Electron number  ETRS Iterations
 RTBSE|            1496     0.34141899E-007     0.10000000E+002                6
 RTBSE| Simulation step         Convergence     Electron number  ETRS Iterations
 RTBSE|            1497     0.34480959E-007     0.10000000E+002                6
 RTBSE| Simulation step         Convergence     Electron number  ETRS Iterations
 RTBSE|            1498     0.34374469E-007     0.10000000E+002                6
 RTBSE| Simulation step         Convergence     Electron number  ETRS Iterations
 RTBSE|            1499     0.34703826E-007     0.10000000E+002                6
 RTBSE| Simulation step         Convergence     Electron number  ETRS Iterations
 RTBSE|            1500     0.35134290E-007     0.10000000E+002                6
 RTBSE| Simulation step         Convergence     Electron number  ETRS Iterations
 RTBSE|            1501     0.35251559E-007     0.10000000E+002                6
 RTBSE| Simulation step         Convergence     Electron number  ETRS Iterations
 RTBSE|            1502     0.35173328E-007     0.10000000E+002                6
 RTBSE| Simulation step         Convergence     Electron number  ETRS Iterations
 RTBSE|            1503     0.34847335E-007     0.10000000E+002                6
 RTBSE| Simulation step         Convergence     Electron number  ETRS Iterations
 RTBSE|            1504     0.34281660E-007     0.10000000E+002                6
 RTBSE| Simulation step         Convergence     Electron number  ETRS Iterations
 RTBSE|            1505     0.33422475E-007     0.10000000E+002                6
 RTBSE| Simulation step         Convergence     Electron number  ETRS Iterations
 RTBSE|            1506     0.32188843E-007     0.10000000E+002                6
 RTBSE| Simulation step         Convergence     Electron number  ETRS Iterations
 RTBSE|            1507     0.30516544E-007     0.10000000E+002                6
 RTBSE| Simulation step         Convergence     Electron number  ETRS Iterations
 RTBSE|            1508     0.28324732E-007     0.10000000E+002                6
 RTBSE| Simulation step         Convergence     Electron number  ETRS Iterations
 RTBSE|            1509     0.25563814E-007     0.10000000E+002                6
 RTBSE| Simulation step         Convergence     Electron number  ETRS Iterations
 RTBSE|            1510     0.22195563E-007     0.10000000E+002                6
 RTBSE| Simulation step         Convergence     Electron number  ETRS Iterations
 RTBSE|            1511     0.18265177E-007     0.10000000E+002                6
 RTBSE| Simulation step         Convergence     Electron number  ETRS Iterations
 RTBSE|            1512     0.86687176E-007     0.10000000E+002                5
 RTBSE| Simulation step         Convergence     Electron number  ETRS Iterations
 RTBSE|            1513     0.70033502E-007     0.10000000E+002                5
 RTBSE| Simulation step         Convergence     Electron number  ETRS Iterations
 RTBSE|            1514     0.63765225E-007     0.10000000E+002                5
 RTBSE| Simulation step         Convergence     Electron number  ETRS Iterations
 RTBSE|            1515     0.14380128E-007     0.10000000E+002                6
 RTBSE| Simulation step         Convergence     Electron number  ETRS Iterations
 RTBSE|            1516     0.18590226E-007     0.10000000E+002                6
 RTBSE| Simulation step         Convergence     Electron number  ETRS Iterations
 RTBSE|            1517     0.22415014E-007     0.10000000E+002                6
 RTBSE| Simulation step         Convergence     Electron number  ETRS Iterations
 RTBSE|            1518     0.25757410E-007     0.10000000E+002                6
 RTBSE| Simulation step         Convergence     Electron number  ETRS Iterations
 RTBSE|            1519     0.28453271E-007     0.10000000E+002                6
 RTBSE| Simulation step         Convergence     Electron number  ETRS Iterations
 RTBSE|            1520     0.30465341E-007     0.10000000E+002                6
 RTBSE| Simulation step         Convergence     Electron number  ETRS Iterations
 RTBSE|            1521     0.31826692E-007     0.10000000E+002                6
 RTBSE| Simulation step         Convergence     Electron number  ETRS Iterations
 RTBSE|            1522     0.32609378E-007     0.10000000E+002                6
 RTBSE| Simulation step         Convergence     Electron number  ETRS Iterations
 RTBSE|            1523     0.32810485E-007     0.10000000E+002                6
 RTBSE| Simulation step         Convergence     Electron number  ETRS Iterations
 RTBSE|            1524     0.32573978E-007     0.10000000E+002                6
 RTBSE| Simulation step         Convergence     Electron number  ETRS Iterations
 RTBSE|            1525     0.32256241E-007     0.10000000E+002                6
 RTBSE| Simulation step         Convergence     Electron number  ETRS Iterations
 RTBSE|            1526     0.32697181E-007     0.10000000E+002                6
 RTBSE| Simulation step         Convergence     Electron number  ETRS Iterations
 RTBSE|            1527     0.32838661E-007     0.10000000E+002                6
 RTBSE| Simulation step         Convergence     Electron number  ETRS Iterations
 RTBSE|            1528     0.32710106E-007     0.10000000E+002                6
 RTBSE| Simulation step         Convergence     Electron number  ETRS Iterations
 RTBSE|            1529     0.32332998E-007     0.10000000E+002                6
 RTBSE| Simulation step         Convergence     Electron number  ETRS Iterations
 RTBSE|            1530     0.31686010E-007     0.10000000E+002                6
 RTBSE| Simulation step         Convergence     Electron number  ETRS Iterations
 RTBSE|            1531     0.30713436E-007     0.10000000E+002                6
 RTBSE| Simulation step         Convergence     Electron number  ETRS Iterations
 RTBSE|            1532     0.29329939E-007     0.10000000E+002                6
 RTBSE| Simulation step         Convergence     Electron number  ETRS Iterations
 RTBSE|            1533     0.27480877E-007     0.10000000E+002                6
 RTBSE| Simulation step         Convergence     Electron number  ETRS Iterations
 RTBSE|            1534     0.25075483E-007     0.10000000E+002                6
 RTBSE| Simulation step         Convergence     Electron number  ETRS Iterations
 RTBSE|            1535     0.22073902E-007     0.10000000E+002                6
 RTBSE| Simulation step         Convergence     Electron number  ETRS Iterations
 RTBSE|            1536     0.18471938E-007     0.10000000E+002                6
 RTBSE| Simulation step         Convergence     Electron number  ETRS Iterations
 RTBSE|            1537     0.86688901E-007     0.10000000E+002                5
 RTBSE| Simulation step         Convergence     Electron number  ETRS Iterations
 RTBSE|            1538     0.71291875E-007     0.10000000E+002                5
 RTBSE| Simulation step         Convergence     Electron number  ETRS Iterations
 RTBSE|            1539     0.61602037E-007     0.10000000E+002                5
 RTBSE| Simulation step         Convergence     Electron number  ETRS Iterations
 RTBSE|            1540     0.98004143E-007     0.10000000E+002                5
 RTBSE| Simulation step         Convergence     Electron number  ETRS Iterations
 RTBSE|            1541     0.18563735E-007     0.10000000E+002                6
 RTBSE| Simulation step         Convergence     Electron number  ETRS Iterations
 RTBSE|            1542     0.22518114E-007     0.10000000E+002                6
 RTBSE| Simulation step         Convergence     Electron number  ETRS Iterations
 RTBSE|            1543     0.26005265E-007     0.10000000E+002                6
 RTBSE| Simulation step         Convergence     Electron number  ETRS Iterations
 RTBSE|            1544     0.28931823E-007     0.10000000E+002                6
 RTBSE| Simulation step         Convergence     Electron number  ETRS Iterations
 RTBSE|            1545     0.31217347E-007     0.10000000E+002                6
 RTBSE| Simulation step         Convergence     Electron number  ETRS Iterations
 RTBSE|            1546     0.32853197E-007     0.10000000E+002                6
 RTBSE| Simulation step         Convergence     Electron number  ETRS Iterations
 RTBSE|            1547     0.33861924E-007     0.10000000E+002                6
 RTBSE| Simulation step         Convergence     Electron number  ETRS Iterations
 RTBSE|            1548     0.34304207E-007     0.10000000E+002                6
 RTBSE| Simulation step         Convergence     Electron number  ETRS Iterations
 RTBSE|            1549     0.34318247E-007     0.10000000E+002                6
 RTBSE| Simulation step         Convergence     Electron number  ETRS Iterations
 RTBSE|            1550     0.34436952E-007     0.10000000E+002                6
 RTBSE| Simulation step         Convergence     Electron number  ETRS Iterations
 RTBSE|            1551     0.35024852E-007     0.10000000E+002                6
 RTBSE| Simulation step         Convergence     Electron number  ETRS Iterations
 RTBSE|            1552     0.35319425E-007     0.10000000E+002                6
 RTBSE| Simulation step         Convergence     Electron number  ETRS Iterations
 RTBSE|            1553     0.35385627E-007     0.10000000E+002                6
 RTBSE| Simulation step         Convergence     Electron number  ETRS Iterations
 RTBSE|            1554     0.35219880E-007     0.10000000E+002                6
 RTBSE| Simulation step         Convergence     Electron number  ETRS Iterations
 RTBSE|            1555     0.34808215E-007     0.10000000E+002                6
 RTBSE| Simulation step         Convergence     Electron number  ETRS Iterations
 RTBSE|            1556     0.34083026E-007     0.10000000E+002                6
 RTBSE| Simulation step         Convergence     Electron number  ETRS Iterations
 RTBSE|            1557     0.32982626E-007     0.10000000E+002                6
 RTBSE| Simulation step         Convergence     Electron number  ETRS Iterations
 RTBSE|            1558     0.31383646E-007     0.10000000E+002                6
 RTBSE| Simulation step         Convergence     Electron number  ETRS Iterations
 RTBSE|            1559     0.29235705E-007     0.10000000E+002                6
 RTBSE| Simulation step         Convergence     Electron number  ETRS Iterations
 RTBSE|            1560     0.26468898E-007     0.10000000E+002                6
 RTBSE| Simulation step         Convergence     Electron number  ETRS Iterations
 RTBSE|            1561     0.23092946E-007     0.10000000E+002                6
 RTBSE| Simulation step         Convergence     Electron number  ETRS Iterations
 RTBSE|            1562     0.19100843E-007     0.10000000E+002                6
 RTBSE| Simulation step         Convergence     Electron number  ETRS Iterations
 RTBSE|            1563     0.89808809E-007     0.10000000E+002                5
 RTBSE| Simulation step         Convergence     Electron number  ETRS Iterations
 RTBSE|            1564     0.72386842E-007     0.10000000E+002                5
 RTBSE| Simulation step         Convergence     Electron number  ETRS Iterations
 RTBSE|            1565     0.59817795E-007     0.10000000E+002                5
 RTBSE| Simulation step         Convergence     Electron number  ETRS Iterations
 RTBSE|            1566     0.97789246E-007     0.10000000E+002                5
 RTBSE| Simulation step         Convergence     Electron number  ETRS Iterations
 RTBSE|            1567     0.18225524E-007     0.10000000E+002                6
 RTBSE| Simulation step         Convergence     Electron number  ETRS Iterations
 RTBSE|            1568     0.22094510E-007     0.10000000E+002                6
 RTBSE| Simulation step         Convergence     Electron number  ETRS Iterations
 RTBSE|            1569     0.25414346E-007     0.10000000E+002                6
 RTBSE| Simulation step         Convergence     Electron number  ETRS Iterations
 RTBSE|            1570     0.28083535E-007     0.10000000E+002                6
 RTBSE| Simulation step         Convergence     Electron number  ETRS Iterations
 RTBSE|            1571     0.30093929E-007     0.10000000E+002                6
 RTBSE| Simulation step         Convergence     Electron number  ETRS Iterations
 RTBSE|            1572     0.31457614E-007     0.10000000E+002                6
 RTBSE| Simulation step         Convergence     Electron number  ETRS Iterations
 RTBSE|            1573     0.32204965E-007     0.10000000E+002                6
 RTBSE| Simulation step         Convergence     Electron number  ETRS Iterations
 RTBSE|            1574     0.32446932E-007     0.10000000E+002                6
 RTBSE| Simulation step         Convergence     Electron number  ETRS Iterations
 RTBSE|            1575     0.32243717E-007     0.10000000E+002                6
 RTBSE| Simulation step         Convergence     Electron number  ETRS Iterations
 RTBSE|            1576     0.31685640E-007     0.10000000E+002                6
 RTBSE| Simulation step         Convergence     Electron number  ETRS Iterations
 RTBSE|            1577     0.32150823E-007     0.10000000E+002                6
 RTBSE| Simulation step         Convergence     Electron number  ETRS Iterations
 RTBSE|            1578     0.32388608E-007     0.10000000E+002                6
 RTBSE| Simulation step         Convergence     Electron number  ETRS Iterations
 RTBSE|            1579     0.32403396E-007     0.10000000E+002                6
 RTBSE| Simulation step         Convergence     Electron number  ETRS Iterations
 RTBSE|            1580     0.32200210E-007     0.10000000E+002                6
 RTBSE| Simulation step         Convergence     Electron number  ETRS Iterations
 RTBSE|            1581     0.31746988E-007     0.10000000E+002                6
 RTBSE| Simulation step         Convergence     Electron number  ETRS Iterations
 RTBSE|            1582     0.30969908E-007     0.10000000E+002                6
 RTBSE| Simulation step         Convergence     Electron number  ETRS Iterations
 RTBSE|            1583     0.29817025E-007     0.10000000E+002                6
 RTBSE| Simulation step         Convergence     Electron number  ETRS Iterations
 RTBSE|            1584     0.28178332E-007     0.10000000E+002                6
 RTBSE| Simulation step         Convergence     Electron number  ETRS Iterations
 RTBSE|            1585     0.25959051E-007     0.10000000E+002                6
 RTBSE| Simulation step         Convergence     Electron number  ETRS Iterations
 RTBSE|            1586     0.23114321E-007     0.10000000E+002                6
 RTBSE| Simulation step         Convergence     Electron number  ETRS Iterations
 RTBSE|            1587     0.19607752E-007     0.10000000E+002                6
 RTBSE| Simulation step         Convergence     Electron number  ETRS Iterations
 RTBSE|            1588     0.90895866E-007     0.10000000E+002                5
 RTBSE| Simulation step         Convergence     Electron number  ETRS Iterations
 RTBSE|            1589     0.75381336E-007     0.10000000E+002                5
 RTBSE| Simulation step         Convergence     Electron number  ETRS Iterations
 RTBSE|            1590     0.61997752E-007     0.10000000E+002                5
 RTBSE| Simulation step         Convergence     Electron number  ETRS Iterations
 RTBSE|            1591     0.91732722E-007     0.10000000E+002                5
 RTBSE| Simulation step         Convergence     Electron number  ETRS Iterations
 RTBSE|            1592     0.17933141E-007     0.10000000E+002                6
 RTBSE| Simulation step         Convergence     Electron number  ETRS Iterations
 RTBSE|            1593     0.21999160E-007     0.10000000E+002                6
 RTBSE| Simulation step         Convergence     Electron number  ETRS Iterations
 RTBSE|            1594     0.25606153E-007     0.10000000E+002                6
 RTBSE| Simulation step         Convergence     Electron number  ETRS Iterations
 RTBSE|            1595     0.28620825E-007     0.10000000E+002                6
 RTBSE| Simulation step         Convergence     Electron number  ETRS Iterations
 RTBSE|            1596     0.31003732E-007     0.10000000E+002                6
 RTBSE| Simulation step         Convergence     Electron number  ETRS Iterations
 RTBSE|            1597     0.32718556E-007     0.10000000E+002                6
 RTBSE| Simulation step         Convergence     Electron number  ETRS Iterations
 RTBSE|            1598     0.33768693E-007     0.10000000E+002                6
 RTBSE| Simulation step         Convergence     Electron number  ETRS Iterations
 RTBSE|            1599     0.34298659E-007     0.10000000E+002                6
 RTBSE| Simulation step         Convergence     Electron number  ETRS Iterations
 RTBSE|            1600     0.34364973E-007     0.10000000E+002                6
 RTBSE| Simulation step         Convergence     Electron number  ETRS Iterations
 RTBSE|            1601     0.34333029E-007     0.10000000E+002                6
 RTBSE| Simulation step         Convergence     Electron number  ETRS Iterations
 RTBSE|            1602     0.34981266E-007     0.10000000E+002                6
 RTBSE| Simulation step         Convergence     Electron number  ETRS Iterations
 RTBSE|            1603     0.35346183E-007     0.10000000E+002                6
 RTBSE| Simulation step         Convergence     Electron number  ETRS Iterations
 RTBSE|            1604     0.35489019E-007     0.10000000E+002                6
 RTBSE| Simulation step         Convergence     Electron number  ETRS Iterations
 RTBSE|            1605     0.35422837E-007     0.10000000E+002                6
 RTBSE| Simulation step         Convergence     Electron number  ETRS Iterations
 RTBSE|            1606     0.35108508E-007     0.10000000E+002                6
 RTBSE| Simulation step         Convergence     Electron number  ETRS Iterations
 RTBSE|            1607     0.34484955E-007     0.10000000E+002                6
 RTBSE| Simulation step         Convergence     Electron number  ETRS Iterations
 RTBSE|            1608     0.33440473E-007     0.10000000E+002                6
 RTBSE| Simulation step         Convergence     Electron number  ETRS Iterations
 RTBSE|            1609     0.31895433E-007     0.10000000E+002                6
 RTBSE| Simulation step         Convergence     Electron number  ETRS Iterations
 RTBSE|            1610     0.29786708E-007     0.10000000E+002                6
 RTBSE| Simulation step         Convergence     Electron number  ETRS Iterations
 RTBSE|            1611     0.27041072E-007     0.10000000E+002                6
 RTBSE| Simulation step         Convergence     Electron number  ETRS Iterations
 RTBSE|            1612     0.23674804E-007     0.10000000E+002                6
 RTBSE| Simulation step         Convergence     Electron number  ETRS Iterations
 RTBSE|            1613     0.19681693E-007     0.10000000E+002                6
 RTBSE| Simulation step         Convergence     Electron number  ETRS Iterations
 RTBSE|            1614     0.91939922E-007     0.10000000E+002                5
 RTBSE| Simulation step         Convergence     Electron number  ETRS Iterations
 RTBSE|            1615     0.74087719E-007     0.10000000E+002                5
 RTBSE| Simulation step         Convergence     Electron number  ETRS Iterations
 RTBSE|            1616     0.59392662E-007     0.10000000E+002                5
 RTBSE| Simulation step         Convergence     Electron number  ETRS Iterations
 RTBSE|            1617     0.93949480E-007     0.10000000E+002                5
 RTBSE| Simulation step         Convergence     Electron number  ETRS Iterations
 RTBSE|            1618     0.17751295E-007     0.10000000E+002                6
 RTBSE| Simulation step         Convergence     Electron number  ETRS Iterations
 RTBSE|            1619     0.21593603E-007     0.10000000E+002                6
 RTBSE| Simulation step         Convergence     Electron number  ETRS Iterations
 RTBSE|            1620     0.24903978E-007     0.10000000E+002                6
 RTBSE| Simulation step         Convergence     Electron number  ETRS Iterations
 RTBSE|            1621     0.27567701E-007     0.10000000E+002                6
 RTBSE| Simulation step         Convergence     Electron number  ETRS Iterations
 RTBSE|            1622     0.29568437E-007     0.10000000E+002                6
 RTBSE| Simulation step         Convergence     Electron number  ETRS Iterations
 RTBSE|            1623     0.30903753E-007     0.10000000E+002                6
 RTBSE| Simulation step         Convergence     Electron number  ETRS Iterations
 RTBSE|            1624     0.31663187E-007     0.10000000E+002                6
 RTBSE| Simulation step         Convergence     Electron number  ETRS Iterations
 RTBSE|            1625     0.31900222E-007     0.10000000E+002                6
 RTBSE| Simulation step         Convergence     Electron number  ETRS Iterations
 RTBSE|            1626     0.31750215E-007     0.10000000E+002                6
 RTBSE| Simulation step         Convergence     Electron number  ETRS Iterations
 RTBSE|            1627     0.31323814E-007     0.10000000E+002                6
 RTBSE| Simulation step         Convergence     Electron number  ETRS Iterations
 RTBSE|            1628     0.31567819E-007     0.10000000E+002                6
 RTBSE| Simulation step         Convergence     Electron number  ETRS Iterations
 RTBSE|            1629     0.31919125E-007     0.10000000E+002                6
 RTBSE| Simulation step         Convergence     Electron number  ETRS Iterations
 RTBSE|            1630     0.32091038E-007     0.10000000E+002                6
 RTBSE| Simulation step         Convergence     Electron number  ETRS Iterations
 RTBSE|            1631     0.32062501E-007     0.10000000E+002                6
 RTBSE| Simulation step         Convergence     Electron number  ETRS Iterations
 RTBSE|            1632     0.31815413E-007     0.10000000E+002                6
 RTBSE| Simulation step         Convergence     Electron number  ETRS Iterations
 RTBSE|            1633     0.31268853E-007     0.10000000E+002                6
 RTBSE| Simulation step         Convergence     Electron number  ETRS Iterations
 RTBSE|            1634     0.30319805E-007     0.10000000E+002                6
 RTBSE| Simulation step         Convergence     Electron number  ETRS Iterations
 RTBSE|            1635     0.28845856E-007     0.10000000E+002                6
 RTBSE| Simulation step         Convergence     Electron number  ETRS Iterations
 RTBSE|            1636     0.26784344E-007     0.10000000E+002                6
 RTBSE| Simulation step         Convergence     Electron number  ETRS Iterations
 RTBSE|            1637     0.24052075E-007     0.10000000E+002                6
 RTBSE| Simulation step         Convergence     Electron number  ETRS Iterations
 RTBSE|            1638     0.20615193E-007     0.10000000E+002                6
 RTBSE| Simulation step         Convergence     Electron number  ETRS Iterations
 RTBSE|            1639     0.94695623E-007     0.10000000E+002                5
 RTBSE| Simulation step         Convergence     Electron number  ETRS Iterations
 RTBSE|            1640     0.79152735E-007     0.10000000E+002                5
 RTBSE| Simulation step         Convergence     Electron number  ETRS Iterations
 RTBSE|            1641     0.64454664E-007     0.10000000E+002                5
 RTBSE| Simulation step         Convergence     Electron number  ETRS Iterations
 RTBSE|            1642     0.85937494E-007     0.10000000E+002                5
 RTBSE| Simulation step         Convergence     Electron number  ETRS Iterations
 RTBSE|            1643     0.17334699E-007     0.10000000E+002                6
 RTBSE| Simulation step         Convergence     Electron number  ETRS Iterations
 RTBSE|            1644     0.21444096E-007     0.10000000E+002                6
 RTBSE| Simulation step         Convergence     Electron number  ETRS Iterations
 RTBSE|            1645     0.25129469E-007     0.10000000E+002                6
 RTBSE| Simulation step         Convergence     Electron number  ETRS Iterations
 RTBSE|            1646     0.28211807E-007     0.10000000E+002                6
 RTBSE| Simulation step         Convergence     Electron number  ETRS Iterations
 RTBSE|            1647     0.30628175E-007     0.10000000E+002                6
 RTBSE| Simulation step         Convergence     Electron number  ETRS Iterations
 RTBSE|            1648     0.32374266E-007     0.10000000E+002                6
 RTBSE| Simulation step         Convergence     Electron number  ETRS Iterations
 RTBSE|            1649     0.33471934E-007     0.10000000E+002                6
 RTBSE| Simulation step         Convergence     Electron number  ETRS Iterations
 RTBSE|            1650     0.34026850E-007     0.10000000E+002                6
 RTBSE| Simulation step         Convergence     Electron number  ETRS Iterations
 RTBSE|            1651     0.34122441E-007     0.10000000E+002                6
 RTBSE| Simulation step         Convergence     Electron number  ETRS Iterations
 RTBSE|            1652     0.33903304E-007     0.10000000E+002                6
 RTBSE| Simulation step         Convergence     Electron number  ETRS Iterations
 RTBSE|            1653     0.34584303E-007     0.10000000E+002                6
 RTBSE| Simulation step         Convergence     Electron number  ETRS Iterations
 RTBSE|            1654     0.35013728E-007     0.10000000E+002                6
 RTBSE| Simulation step         Convergence     Electron number  ETRS Iterations
 RTBSE|            1655     0.35232416E-007     0.10000000E+002                6
 RTBSE| Simulation step         Convergence     Electron number  ETRS Iterations
 RTBSE|            1656     0.35257785E-007     0.10000000E+002                6
 RTBSE| Simulation step         Convergence     Electron number  ETRS Iterations
 RTBSE|            1657     0.35051715E-007     0.10000000E+002                6
 RTBSE| Simulation step         Convergence     Electron number  ETRS Iterations
 RTBSE|            1658     0.34550860E-007     0.10000000E+002                6
 RTBSE| Simulation step         Convergence     Electron number  ETRS Iterations
 RTBSE|            1659     0.33674262E-007     0.10000000E+002                6
 RTBSE| Simulation step         Convergence     Electron number  ETRS Iterations
 RTBSE|            1660     0.32297941E-007     0.10000000E+002                6
 RTBSE| Simulation step         Convergence     Electron number  ETRS Iterations
 RTBSE|            1661     0.30339324E-007     0.10000000E+002                6
 RTBSE| Simulation step         Convergence     Electron number  ETRS Iterations
 RTBSE|            1662     0.27735622E-007     0.10000000E+002                6
 RTBSE| Simulation step         Convergence     Electron number  ETRS Iterations
 RTBSE|            1663     0.24467336E-007     0.10000000E+002                6
 RTBSE| Simulation step         Convergence     Electron number  ETRS Iterations
 RTBSE|            1664     0.20561244E-007     0.10000000E+002                6
 RTBSE| Simulation step         Convergence     Electron number  ETRS Iterations
 RTBSE|            1665     0.95575807E-007     0.10000000E+002                5
 RTBSE| Simulation step         Convergence     Electron number  ETRS Iterations
 RTBSE|            1666     0.77409769E-007     0.10000000E+002                5
 RTBSE| Simulation step         Convergence     Electron number  ETRS Iterations
 RTBSE|            1667     0.61639394E-007     0.10000000E+002                5
 RTBSE| Simulation step         Convergence     Electron number  ETRS Iterations
 RTBSE|            1668     0.87382471E-007     0.10000000E+002                5
 RTBSE| Simulation step         Convergence     Electron number  ETRS Iterations
 RTBSE|            1669     0.17022246E-007     0.10000000E+002                6
 RTBSE| Simulation step         Convergence     Electron number  ETRS Iterations
 RTBSE|            1670     0.20919865E-007     0.10000000E+002                6
 RTBSE| Simulation step         Convergence     Electron number  ETRS Iterations
 RTBSE|            1671     0.24259534E-007     0.10000000E+002                6
 RTBSE| Simulation step         Convergence     Electron number  ETRS Iterations
 RTBSE|            1672     0.26955994E-007     0.10000000E+002                6
 RTBSE| Simulation step         Convergence     Electron number  ETRS Iterations
 RTBSE|            1673     0.29018312E-007     0.10000000E+002                6
 RTBSE| Simulation step         Convergence     Electron number  ETRS Iterations
 RTBSE|            1674     0.30414469E-007     0.10000000E+002                6
 RTBSE| Simulation step         Convergence     Electron number  ETRS Iterations
 RTBSE|            1675     0.31244941E-007     0.10000000E+002                6
 RTBSE| Simulation step         Convergence     Electron number  ETRS Iterations
 RTBSE|            1676     0.31603545E-007     0.10000000E+002                6
 RTBSE| Simulation step         Convergence     Electron number  ETRS Iterations
 RTBSE|            1677     0.31543434E-007     0.10000000E+002                6
 RTBSE| Simulation step         Convergence     Electron number  ETRS Iterations
 RTBSE|            1678     0.31225737E-007     0.10000000E+002                6
 RTBSE| Simulation step         Convergence     Electron number  ETRS Iterations
 RTBSE|            1679     0.31257601E-007     0.10000000E+002                6
 RTBSE| Simulation step         Convergence     Electron number  ETRS Iterations
 RTBSE|            1680     0.31761792E-007     0.10000000E+002                6
 RTBSE| Simulation step         Convergence     Electron number  ETRS Iterations
 RTBSE|            1681     0.32086504E-007     0.10000000E+002                6
 RTBSE| Simulation step         Convergence     Electron number  ETRS Iterations
 RTBSE|            1682     0.32245404E-007     0.10000000E+002                6
 RTBSE| Simulation step         Convergence     Electron number  ETRS Iterations
 RTBSE|            1683     0.32171192E-007     0.10000000E+002                6
 RTBSE| Simulation step         Convergence     Electron number  ETRS Iterations
 RTBSE|            1684     0.31770182E-007     0.10000000E+002                6
 RTBSE| Simulation step         Convergence     Electron number  ETRS Iterations
 RTBSE|            1685     0.30958649E-007     0.10000000E+002                6
 RTBSE| Simulation step         Convergence     Electron number  ETRS Iterations
 RTBSE|            1686     0.29619763E-007     0.10000000E+002                6
 RTBSE| Simulation step         Convergence     Electron number  ETRS Iterations
 RTBSE|            1687     0.27671645E-007     0.10000000E+002                6
 RTBSE| Simulation step         Convergence     Electron number  ETRS Iterations
 RTBSE|            1688     0.25006331E-007     0.10000000E+002                6
 RTBSE| Simulation step         Convergence     Electron number  ETRS Iterations
 RTBSE|            1689     0.21593676E-007     0.10000000E+002                6
 RTBSE| Simulation step         Convergence     Electron number  ETRS Iterations
 RTBSE|            1690     0.98448590E-007     0.10000000E+002                5
 RTBSE| Simulation step         Convergence     Electron number  ETRS Iterations
 RTBSE|            1691     0.82494565E-007     0.10000000E+002                5
 RTBSE| Simulation step         Convergence     Electron number  ETRS Iterations
 RTBSE|            1692     0.66782668E-007     0.10000000E+002                5
 RTBSE| Simulation step         Convergence     Electron number  ETRS Iterations
 RTBSE|            1693     0.80723957E-007     0.10000000E+002                5
 RTBSE| Simulation step         Convergence     Electron number  ETRS Iterations
 RTBSE|            1694     0.16773583E-007     0.10000000E+002                6
 RTBSE| Simulation step         Convergence     Electron number  ETRS Iterations
 RTBSE|            1695     0.20953440E-007     0.10000000E+002                6
 RTBSE| Simulation step         Convergence     Electron number  ETRS Iterations
 RTBSE|            1696     0.24664703E-007     0.10000000E+002                6
 RTBSE| Simulation step         Convergence     Electron number  ETRS Iterations
 RTBSE|            1697     0.27803883E-007     0.10000000E+002                6
 RTBSE| Simulation step         Convergence     Electron number  ETRS Iterations
 RTBSE|            1698     0.30234811E-007     0.10000000E+002                6
 RTBSE| Simulation step         Convergence     Electron number  ETRS Iterations
 RTBSE|            1699     0.31996539E-007     0.10000000E+002                6
 RTBSE| Simulation step         Convergence     Electron number  ETRS Iterations
 RTBSE|            1700     0.33141847E-007     0.10000000E+002                6
 RTBSE| Simulation step         Convergence     Electron number  ETRS Iterations
 RTBSE|            1701     0.33726577E-007     0.10000000E+002                6
 RTBSE| Simulation step         Convergence     Electron number  ETRS Iterations
 RTBSE|            1702     0.33874244E-007     0.10000000E+002                6
 RTBSE| Simulation step         Convergence     Electron number  ETRS Iterations
 RTBSE|            1703     0.33694020E-007     0.10000000E+002                6
 RTBSE| Simulation step         Convergence     Electron number  ETRS Iterations
 RTBSE|            1704     0.34175763E-007     0.10000000E+002                6
 RTBSE| Simulation step         Convergence     Electron number  ETRS Iterations
 RTBSE|            1705     0.34695455E-007     0.10000000E+002                6
 RTBSE| Simulation step         Convergence     Electron number  ETRS Iterations
 RTBSE|            1706     0.35050271E-007     0.10000000E+002                6
 RTBSE| Simulation step         Convergence     Electron number  ETRS Iterations
 RTBSE|            1707     0.35226454E-007     0.10000000E+002                6
 RTBSE| Simulation step         Convergence     Electron number  ETRS Iterations
 RTBSE|            1708     0.35207022E-007     0.10000000E+002                6
 RTBSE| Simulation step         Convergence     Electron number  ETRS Iterations
 RTBSE|            1709     0.34891018E-007     0.10000000E+002                6
 RTBSE| Simulation step         Convergence     Electron number  ETRS Iterations
 RTBSE|            1710     0.34183283E-007     0.10000000E+002                6
 RTBSE| Simulation step         Convergence     Electron number  ETRS Iterations
 RTBSE|            1711     0.32980521E-007     0.10000000E+002                6
 RTBSE| Simulation step         Convergence     Electron number  ETRS Iterations
 RTBSE|            1712     0.31155498E-007     0.10000000E+002                6
 RTBSE| Simulation step         Convergence     Electron number  ETRS Iterations
 RTBSE|            1713     0.28667415E-007     0.10000000E+002                6
 RTBSE| Simulation step         Convergence     Electron number  ETRS Iterations
 RTBSE|            1714     0.25468303E-007     0.10000000E+002                6
 RTBSE| Simulation step         Convergence     Electron number  ETRS Iterations
 RTBSE|            1715     0.21580948E-007     0.10000000E+002                6
 RTBSE| Simulation step         Convergence     Electron number  ETRS Iterations
 RTBSE|            1716     0.99802041E-007     0.10000000E+002                5
 RTBSE| Simulation step         Convergence     Electron number  ETRS Iterations
 RTBSE|            1717     0.81050184E-007     0.10000000E+002                5
 RTBSE| Simulation step         Convergence     Electron number  ETRS Iterations
 RTBSE|            1718     0.64258806E-007     0.10000000E+002                5
 RTBSE| Simulation step         Convergence     Electron number  ETRS Iterations
 RTBSE|            1719     0.82372832E-007     0.10000000E+002                5
 RTBSE| Simulation step         Convergence     Electron number  ETRS Iterations
 RTBSE|            1720     0.16530584E-007     0.10000000E+002                6
 RTBSE| Simulation step         Convergence     Electron number  ETRS Iterations
 RTBSE|            1721     0.20481306E-007     0.10000000E+002                6
 RTBSE| Simulation step         Convergence     Electron number  ETRS Iterations
 RTBSE|            1722     0.23897028E-007     0.10000000E+002                6
 RTBSE| Simulation step         Convergence     Electron number  ETRS Iterations
 RTBSE|            1723     0.26685544E-007     0.10000000E+002                6
 RTBSE| Simulation step         Convergence     Electron number  ETRS Iterations
 RTBSE|            1724     0.28773068E-007     0.10000000E+002                6
 RTBSE| Simulation step         Convergence     Electron number  ETRS Iterations
 RTBSE|            1725     0.30214240E-007     0.10000000E+002                6
 RTBSE| Simulation step         Convergence     Electron number  ETRS Iterations
 RTBSE|            1726     0.31103837E-007     0.10000000E+002                6
 RTBSE| Simulation step         Convergence     Electron number  ETRS Iterations
 RTBSE|            1727     0.31476692E-007     0.10000000E+002                6
 RTBSE| Simulation step         Convergence     Electron number  ETRS Iterations
 RTBSE|            1728     0.31517943E-007     0.10000000E+002                6
 RTBSE| Simulation step         Convergence     Electron number  ETRS Iterations
 RTBSE|            1729     0.31232920E-007     0.10000000E+002                6
 RTBSE| Simulation step         Convergence     Electron number  ETRS Iterations
 RTBSE|            1730     0.31088579E-007     0.10000000E+002                6
 RTBSE| Simulation step         Convergence     Electron number  ETRS Iterations
 RTBSE|            1731     0.31649248E-007     0.10000000E+002                6
 RTBSE| Simulation step         Convergence     Electron number  ETRS Iterations
 RTBSE|            1732     0.32061068E-007     0.10000000E+002                6
 RTBSE| Simulation step         Convergence     Electron number  ETRS Iterations
 RTBSE|            1733     0.32312250E-007     0.10000000E+002                6
 RTBSE| Simulation step         Convergence     Electron number  ETRS Iterations
 RTBSE|            1734     0.32349167E-007     0.10000000E+002                6
 RTBSE| Simulation step         Convergence     Electron number  ETRS Iterations
 RTBSE|            1735     0.32082180E-007     0.10000000E+002                6
 RTBSE| Simulation step         Convergence     Electron number  ETRS Iterations
 RTBSE|            1736     0.31383014E-007     0.10000000E+002                6
 RTBSE| Simulation step         Convergence     Electron number  ETRS Iterations
 RTBSE|            1737     0.30138814E-007     0.10000000E+002                6
 RTBSE| Simulation step         Convergence     Electron number  ETRS Iterations
 RTBSE|            1738     0.28254663E-007     0.10000000E+002                6
 RTBSE| Simulation step         Convergence     Electron number  ETRS Iterations
 RTBSE|            1739     0.25635860E-007     0.10000000E+002                6
 RTBSE| Simulation step         Convergence     Electron number  ETRS Iterations
 RTBSE|            1740     0.22272013E-007     0.10000000E+002                6
 RTBSE| Simulation step         Convergence     Electron number  ETRS Iterations
 RTBSE|            1741     0.18165682E-007     0.10000000E+002                6
 RTBSE| Simulation step         Convergence     Electron number  ETRS Iterations
 RTBSE|            1742     0.84898956E-007     0.10000000E+002                5
 RTBSE| Simulation step         Convergence     Electron number  ETRS Iterations
 RTBSE|            1743     0.68420721E-007     0.10000000E+002                5
 RTBSE| Simulation step         Convergence     Electron number  ETRS Iterations
 RTBSE|            1744     0.76732706E-007     0.10000000E+002                5
 RTBSE| Simulation step         Convergence     Electron number  ETRS Iterations
 RTBSE|            1745     0.16300709E-007     0.10000000E+002                6
 RTBSE| Simulation step         Convergence     Electron number  ETRS Iterations
 RTBSE|            1746     0.20475474E-007     0.10000000E+002                6
 RTBSE| Simulation step         Convergence     Electron number  ETRS Iterations
 RTBSE|            1747     0.24186710E-007     0.10000000E+002                6
 RTBSE| Simulation step         Convergence     Electron number  ETRS Iterations
 RTBSE|            1748     0.27286911E-007     0.10000000E+002                6
 RTBSE| Simulation step         Convergence     Electron number  ETRS Iterations
 RTBSE|            1749     0.29726825E-007     0.10000000E+002                6
 RTBSE| Simulation step         Convergence     Electron number  ETRS Iterations
 RTBSE|            1750     0.31472770E-007     0.10000000E+002                6
 RTBSE| Simulation step         Convergence     Electron number  ETRS Iterations
 RTBSE|            1751     0.32579861E-007     0.10000000E+002                6
 RTBSE| Simulation step         Convergence     Electron number  ETRS Iterations
 RTBSE|            1752     0.33141384E-007     0.10000000E+002                6
 RTBSE| Simulation step         Convergence     Electron number  ETRS Iterations
 RTBSE|            1753     0.33328260E-007     0.10000000E+002                6
 RTBSE| Simulation step         Convergence     Electron number  ETRS Iterations
 RTBSE|            1754     0.33224017E-007     0.10000000E+002                6
 RTBSE| Simulation step         Convergence     Electron number  ETRS Iterations
 RTBSE|            1755     0.33471533E-007     0.10000000E+002                6
 RTBSE| Simulation step         Convergence     Electron number  ETRS Iterations
 RTBSE|            1756     0.34101952E-007     0.10000000E+002                6
 RTBSE| Simulation step         Convergence     Electron number  ETRS Iterations
 RTBSE|            1757     0.34598380E-007     0.10000000E+002                6
 RTBSE| Simulation step         Convergence     Electron number  ETRS Iterations
 RTBSE|            1758     0.34989154E-007     0.10000000E+002                6
 RTBSE| Simulation step         Convergence     Electron number  ETRS Iterations
 RTBSE|            1759     0.35187973E-007     0.10000000E+002                6
 RTBSE| Simulation step         Convergence     Electron number  ETRS Iterations
 RTBSE|            1760     0.35103474E-007     0.10000000E+002                6
 RTBSE| Simulation step         Convergence     Electron number  ETRS Iterations
 RTBSE|            1761     0.34634528E-007     0.10000000E+002                6
 RTBSE| Simulation step         Convergence     Electron number  ETRS Iterations
 RTBSE|            1762     0.33634879E-007     0.10000000E+002                6
 RTBSE| Simulation step         Convergence     Electron number  ETRS Iterations
 RTBSE|            1763     0.31992324E-007     0.10000000E+002                6
 RTBSE| Simulation step         Convergence     Electron number  ETRS Iterations
 RTBSE|            1764     0.29615904E-007     0.10000000E+002                6
 RTBSE| Simulation step         Convergence     Electron number  ETRS Iterations
 RTBSE|            1765     0.26488117E-007     0.10000000E+002                6
 RTBSE| Simulation step         Convergence     Electron number  ETRS Iterations
 RTBSE|            1766     0.22631525E-007     0.10000000E+002                6
 RTBSE| Simulation step         Convergence     Electron number  ETRS Iterations
 RTBSE|            1767     0.18127874E-007     0.10000000E+002                6
 RTBSE| Simulation step         Convergence     Electron number  ETRS Iterations
 RTBSE|            1768     0.84989400E-007     0.10000000E+002                5
 RTBSE| Simulation step         Convergence     Electron number  ETRS Iterations
 RTBSE|            1769     0.67174619E-007     0.10000000E+002                5
 RTBSE| Simulation step         Convergence     Electron number  ETRS Iterations
 RTBSE|            1770     0.77249287E-007     0.10000000E+002                5
 RTBSE| Simulation step         Convergence     Electron number  ETRS Iterations
 RTBSE|            1771     0.16038274E-007     0.10000000E+002                6
 RTBSE| Simulation step         Convergence     Electron number  ETRS Iterations
 RTBSE|            1772     0.20048026E-007     0.10000000E+002                6
 RTBSE| Simulation step         Convergence     Electron number  ETRS Iterations
 RTBSE|            1773     0.23527001E-007     0.10000000E+002                6
 RTBSE| Simulation step         Convergence     Electron number  ETRS Iterations
 RTBSE|            1774     0.26346255E-007     0.10000000E+002                6
 RTBSE| Simulation step         Convergence     Electron number  ETRS Iterations
 RTBSE|            1775     0.28483826E-007     0.10000000E+002                6
 RTBSE| Simulation step         Convergence     Electron number  ETRS Iterations
 RTBSE|            1776     0.29966284E-007     0.10000000E+002                6
 RTBSE| Simulation step         Convergence     Electron number  ETRS Iterations
 RTBSE|            1777     0.30873664E-007     0.10000000E+002                6
 RTBSE| Simulation step         Convergence     Electron number  ETRS Iterations
 RTBSE|            1778     0.31272047E-007     0.10000000E+002                6
 RTBSE| Simulation step         Convergence     Electron number  ETRS Iterations
 RTBSE|            1779     0.31285376E-007     0.10000000E+002                6
 RTBSE| Simulation step         Convergence     Electron number  ETRS Iterations
 RTBSE|            1780     0.31075710E-007     0.10000000E+002                6
 RTBSE| Simulation step         Convergence     Electron number  ETRS Iterations
 RTBSE|            1781     0.30749740E-007     0.10000000E+002                6
 RTBSE| Simulation step         Convergence     Electron number  ETRS Iterations
 RTBSE|            1782     0.31368321E-007     0.10000000E+002                6
 RTBSE| Simulation step         Convergence     Electron number  ETRS Iterations
 RTBSE|            1783     0.31864371E-007     0.10000000E+002                6
 RTBSE| Simulation step         Convergence     Electron number  ETRS Iterations
 RTBSE|            1784     0.32201553E-007     0.10000000E+002                6
 RTBSE| Simulation step         Convergence     Electron number  ETRS Iterations
 RTBSE|            1785     0.32357524E-007     0.10000000E+002                6
 RTBSE| Simulation step         Convergence     Electron number  ETRS Iterations
 RTBSE|            1786     0.32182437E-007     0.10000000E+002                6
 RTBSE| Simulation step         Convergence     Electron number  ETRS Iterations
 RTBSE|            1787     0.31598675E-007     0.10000000E+002                6
 RTBSE| Simulation step         Convergence     Electron number  ETRS Iterations
 RTBSE|            1788     0.30484704E-007     0.10000000E+002                6
 RTBSE| Simulation step         Convergence     Electron number  ETRS Iterations
 RTBSE|            1789     0.28700771E-007     0.10000000E+002                6
 RTBSE| Simulation step         Convergence     Electron number  ETRS Iterations
 RTBSE|            1790     0.26193616E-007     0.10000000E+002                6
 RTBSE| Simulation step         Convergence     Electron number  ETRS Iterations
 RTBSE|            1791     0.22897373E-007     0.10000000E+002                6
 RTBSE| Simulation step         Convergence     Electron number  ETRS Iterations
 RTBSE|            1792     0.18864423E-007     0.10000000E+002                6
 RTBSE| Simulation step         Convergence     Electron number  ETRS Iterations
 RTBSE|            1793     0.87229947E-007     0.10000000E+002                5
 RTBSE| Simulation step         Convergence     Electron number  ETRS Iterations
 RTBSE|            1794     0.70282324E-007     0.10000000E+002                5
 RTBSE| Simulation step         Convergence     Electron number  ETRS Iterations
 RTBSE|            1795     0.70356213E-007     0.10000000E+002                5
 RTBSE| Simulation step         Convergence     Electron number  ETRS Iterations
 RTBSE|            1796     0.15513655E-007     0.10000000E+002                6
 RTBSE| Simulation step         Convergence     Electron number  ETRS Iterations
 RTBSE|            1797     0.19651746E-007     0.10000000E+002                6
 RTBSE| Simulation step         Convergence     Electron number  ETRS Iterations
 RTBSE|            1798     0.23387043E-007     0.10000000E+002                6
 RTBSE| Simulation step         Convergence     Electron number  ETRS Iterations
 RTBSE|            1799     0.26470410E-007     0.10000000E+002                6
 RTBSE| Simulation step         Convergence     Electron number  ETRS Iterations
 RTBSE|            1800     0.28921419E-007     0.10000000E+002                6
 RTBSE| Simulation step         Convergence     Electron number  ETRS Iterations
 RTBSE|            1801     0.30697837E-007     0.10000000E+002                6
 RTBSE| Simulation step         Convergence     Electron number  ETRS Iterations
 RTBSE|            1802     0.31855929E-007     0.10000000E+002                6
 RTBSE| Simulation step         Convergence     Electron number  ETRS Iterations
 RTBSE|            1803     0.32558735E-007     0.10000000E+002                6
 RTBSE| Simulation step         Convergence     Electron number  ETRS Iterations
 RTBSE|            1804     0.32847203E-007     0.10000000E+002                6
 RTBSE| Simulation step         Convergence     Electron number  ETRS Iterations
 RTBSE|            1805     0.32904499E-007     0.10000000E+002                6
 RTBSE| Simulation step         Convergence     Electron number  ETRS Iterations
 RTBSE|            1806     0.32888151E-007     0.10000000E+002                6
 RTBSE| Simulation step         Convergence     Electron number  ETRS Iterations
 RTBSE|            1807     0.33716329E-007     0.10000000E+002                6
 RTBSE| Simulation step         Convergence     Electron number  ETRS Iterations
 RTBSE|            1808     0.34444498E-007     0.10000000E+002                6
 RTBSE| Simulation step         Convergence     Electron number  ETRS Iterations
 RTBSE|            1809     0.35075283E-007     0.10000000E+002                6
 RTBSE| Simulation step         Convergence     Electron number  ETRS Iterations
 RTBSE|            1810     0.35520945E-007     0.10000000E+002                6
 RTBSE| Simulation step         Convergence     Electron number  ETRS Iterations
 RTBSE|            1811     0.35680384E-007     0.10000000E+002                6
 RTBSE| Simulation step         Convergence     Electron number  ETRS Iterations
 RTBSE|            1812     0.35417926E-007     0.10000000E+002                6
 RTBSE| Simulation step         Convergence     Electron number  ETRS Iterations
 RTBSE|            1813     0.34585141E-007     0.10000000E+002                6
 RTBSE| Simulation step         Convergence     Electron number  ETRS Iterations
 RTBSE|            1814     0.33071620E-007     0.10000000E+002                6
 RTBSE| Simulation step         Convergence     Electron number  ETRS Iterations
 RTBSE|            1815     0.30786537E-007     0.10000000E+002                6
 RTBSE| Simulation step         Convergence     Electron number  ETRS Iterations
 RTBSE|            1816     0.27687388E-007     0.10000000E+002                6
 RTBSE| Simulation step         Convergence     Electron number  ETRS Iterations
 RTBSE|            1817     0.23816800E-007     0.10000000E+002                6
 RTBSE| Simulation step         Convergence     Electron number  ETRS Iterations
 RTBSE|            1818     0.19239736E-007     0.10000000E+002                6
 RTBSE| Simulation step         Convergence     Electron number  ETRS Iterations
 RTBSE|            1819     0.89157313E-007     0.10000000E+002                5
 RTBSE| Simulation step         Convergence     Electron number  ETRS Iterations
 RTBSE|            1820     0.70250113E-007     0.10000000E+002                5
 RTBSE| Simulation step         Convergence     Electron number  ETRS Iterations
 RTBSE|            1821     0.73061359E-007     0.10000000E+002                5
 RTBSE| Simulation step         Convergence     Electron number  ETRS Iterations
 RTBSE|            1822     0.15672470E-007     0.10000000E+002                6
 RTBSE| Simulation step         Convergence     Electron number  ETRS Iterations
 RTBSE|            1823     0.19784827E-007     0.10000000E+002                6
 RTBSE| Simulation step         Convergence     Electron number  ETRS Iterations
 RTBSE|            1824     0.23296271E-007     0.10000000E+002                6
 RTBSE| Simulation step         Convergence     Electron number  ETRS Iterations
 RTBSE|            1825     0.26160403E-007     0.10000000E+002                6
 RTBSE| Simulation step         Convergence     Electron number  ETRS Iterations
 RTBSE|            1826     0.28298652E-007     0.10000000E+002                6
 RTBSE| Simulation step         Convergence     Electron number  ETRS Iterations
 RTBSE|            1827     0.29763995E-007     0.10000000E+002                6
 RTBSE| Simulation step         Convergence     Electron number  ETRS Iterations
 RTBSE|            1828     0.30654143E-007     0.10000000E+002                6
 RTBSE| Simulation step         Convergence     Electron number  ETRS Iterations
 RTBSE|            1829     0.31078895E-007     0.10000000E+002                6
 RTBSE| Simulation step         Convergence     Electron number  ETRS Iterations
 RTBSE|            1830     0.31125082E-007     0.10000000E+002                6
 RTBSE| Simulation step         Convergence     Electron number  ETRS Iterations
 RTBSE|            1831     0.30943823E-007     0.10000000E+002                6
 RTBSE| Simulation step         Convergence     Electron number  ETRS Iterations
 RTBSE|            1832     0.30570824E-007     0.10000000E+002                6
 RTBSE| Simulation step         Convergence     Electron number  ETRS Iterations
 RTBSE|            1833     0.31101612E-007     0.10000000E+002                6
 RTBSE| Simulation step         Convergence     Electron number  ETRS Iterations
 RTBSE|            1834     0.31675717E-007     0.10000000E+002                6
 RTBSE| Simulation step         Convergence     Electron number  ETRS Iterations
 RTBSE|            1835     0.32113954E-007     0.10000000E+002                6
 RTBSE| Simulation step         Convergence     Electron number  ETRS Iterations
 RTBSE|            1836     0.32378716E-007     0.10000000E+002                6
 RTBSE| Simulation step         Convergence     Electron number  ETRS Iterations
 RTBSE|            1837     0.32358611E-007     0.10000000E+002                6
 RTBSE| Simulation step         Convergence     Electron number  ETRS Iterations
 RTBSE|            1838     0.31918778E-007     0.10000000E+002                6
 RTBSE| Simulation step         Convergence     Electron number  ETRS Iterations
 RTBSE|            1839     0.30922522E-007     0.10000000E+002                6
 RTBSE| Simulation step         Convergence     Electron number  ETRS Iterations
 RTBSE|            1840     0.29261834E-007     0.10000000E+002                6
 RTBSE| Simulation step         Convergence     Electron number  ETRS Iterations
 RTBSE|            1841     0.26840498E-007     0.10000000E+002                6
 RTBSE| Simulation step         Convergence     Electron number  ETRS Iterations
 RTBSE|            1842     0.23618181E-007     0.10000000E+002                6
 RTBSE| Simulation step         Convergence     Electron number  ETRS Iterations
 RTBSE|            1843     0.19644352E-007     0.10000000E+002                6
 RTBSE| Simulation step         Convergence     Electron number  ETRS Iterations
 RTBSE|            1844     0.90035190E-007     0.10000000E+002                5
 RTBSE| Simulation step         Convergence     Electron number  ETRS Iterations
 RTBSE|            1845     0.72717274E-007     0.10000000E+002                5
 RTBSE| Simulation step         Convergence     Electron number  ETRS Iterations
 RTBSE|            1846     0.64512809E-007     0.10000000E+002                5
 RTBSE| Simulation step         Convergence     Electron number  ETRS Iterations
 RTBSE|            1847     0.14857533E-007     0.10000000E+002                6
 RTBSE| Simulation step         Convergence     Electron number  ETRS Iterations
 RTBSE|            1848     0.18983224E-007     0.10000000E+002                6
 RTBSE| Simulation step         Convergence     Electron number  ETRS Iterations
 RTBSE|            1849     0.22712219E-007     0.10000000E+002                6
 RTBSE| Simulation step         Convergence     Electron number  ETRS Iterations
 RTBSE|            1850     0.25834629E-007     0.10000000E+002                6
 RTBSE| Simulation step         Convergence     Electron number  ETRS Iterations
 RTBSE|            1851     0.28336753E-007     0.10000000E+002                6
 RTBSE| Simulation step         Convergence     Electron number  ETRS Iterations
 RTBSE|            1852     0.30159557E-007     0.10000000E+002                6
 RTBSE| Simulation step         Convergence     Electron number  ETRS Iterations
 RTBSE|            1853     0.31407239E-007     0.10000000E+002                6
 RTBSE| Simulation step         Convergence     Electron number  ETRS Iterations
 RTBSE|            1854     0.32180731E-007     0.10000000E+002                6
 RTBSE| Simulation step         Convergence     Electron number  ETRS Iterations
 RTBSE|            1855     0.32587890E-007     0.10000000E+002                6
 RTBSE| Simulation step         Convergence     Electron number  ETRS Iterations
 RTBSE|            1856     0.32800511E-007     0.10000000E+002                6
 RTBSE| Simulation step         Convergence     Electron number  ETRS Iterations
 RTBSE|            1857     0.32856085E-007     0.10000000E+002                6
 RTBSE| Simulation step         Convergence     Electron number  ETRS Iterations
 RTBSE|            1858     0.33548096E-007     0.10000000E+002                6
 RTBSE| Simulation step         Convergence     Electron number  ETRS Iterations
 RTBSE|            1859     0.34469610E-007     0.10000000E+002                6
 RTBSE| Simulation step         Convergence     Electron number  ETRS Iterations
 RTBSE|            1860     0.35276040E-007     0.10000000E+002                6
 RTBSE| Simulation step         Convergence     Electron number  ETRS Iterations
 RTBSE|            1861     0.35911198E-007     0.10000000E+002                6
 RTBSE| Simulation step         Convergence     Electron number  ETRS Iterations
 RTBSE|            1862     0.36247770E-007     0.10000000E+002                6
 RTBSE| Simulation step         Convergence     Electron number  ETRS Iterations
 RTBSE|            1863     0.36147732E-007     0.10000000E+002                6
 RTBSE| Simulation step         Convergence     Electron number  ETRS Iterations
 RTBSE|            1864     0.35423195E-007     0.10000000E+002                6
 RTBSE| Simulation step         Convergence     Electron number  ETRS Iterations
 RTBSE|            1865     0.33985488E-007     0.10000000E+002                6
 RTBSE| Simulation step         Convergence     Electron number  ETRS Iterations
 RTBSE|            1866     0.31723894E-007     0.10000000E+002                6
 RTBSE| Simulation step         Convergence     Electron number  ETRS Iterations
 RTBSE|            1867     0.28600158E-007     0.10000000E+002                6
 RTBSE| Simulation step         Convergence     Electron number  ETRS Iterations
 RTBSE|            1868     0.24663264E-007     0.10000000E+002                6
 RTBSE| Simulation step         Convergence     Electron number  ETRS Iterations
 RTBSE|            1869     0.19993157E-007     0.10000000E+002                6
 RTBSE| Simulation step         Convergence     Electron number  ETRS Iterations
 RTBSE|            1870     0.91905425E-007     0.10000000E+002                5
 RTBSE| Simulation step         Convergence     Electron number  ETRS Iterations
 RTBSE|            1871     0.72228475E-007     0.10000000E+002                5
 RTBSE| Simulation step         Convergence     Electron number  ETRS Iterations
 RTBSE|            1872     0.70504133E-007     0.10000000E+002                5
 RTBSE| Simulation step         Convergence     Electron number  ETRS Iterations
 RTBSE|            1873     0.15443609E-007     0.10000000E+002                6
 RTBSE| Simulation step         Convergence     Electron number  ETRS Iterations
 RTBSE|            1874     0.19558360E-007     0.10000000E+002                6
 RTBSE| Simulation step         Convergence     Electron number  ETRS Iterations
 RTBSE|            1875     0.23068623E-007     0.10000000E+002                6
 RTBSE| Simulation step         Convergence     Electron number  ETRS Iterations
 RTBSE|            1876     0.25917048E-007     0.10000000E+002                6
 RTBSE| Simulation step         Convergence     Electron number  ETRS Iterations
 RTBSE|            1877     0.28043069E-007     0.10000000E+002                6
 RTBSE| Simulation step         Convergence     Electron number  ETRS Iterations
 RTBSE|            1878     0.29478855E-007     0.10000000E+002                6
 RTBSE| Simulation step         Convergence     Electron number  ETRS Iterations
 RTBSE|            1879     0.30326036E-007     0.10000000E+002                6
 RTBSE| Simulation step         Convergence     Electron number  ETRS Iterations
 RTBSE|            1880     0.30692810E-007     0.10000000E+002                6
 RTBSE| Simulation step         Convergence     Electron number  ETRS Iterations
 RTBSE|            1881     0.30737536E-007     0.10000000E+002                6
 RTBSE| Simulation step         Convergence     Electron number  ETRS Iterations
 RTBSE|            1882     0.30554133E-007     0.10000000E+002                6
 RTBSE| Simulation step         Convergence     Electron number  ETRS Iterations
 RTBSE|            1883     0.30217855E-007     0.10000000E+002                6
 RTBSE| Simulation step         Convergence     Electron number  ETRS Iterations
 RTBSE|            1884     0.30588130E-007     0.10000000E+002                6
 RTBSE| Simulation step         Convergence     Electron number  ETRS Iterations
 RTBSE|            1885     0.31213167E-007     0.10000000E+002                6
 RTBSE| Simulation step         Convergence     Electron number  ETRS Iterations
 RTBSE|            1886     0.31739255E-007     0.10000000E+002                6
 RTBSE| Simulation step         Convergence     Electron number  ETRS Iterations
 RTBSE|            1887     0.32115016E-007     0.10000000E+002                6
 RTBSE| Simulation step         Convergence     Electron number  ETRS Iterations
 RTBSE|            1888     0.32224540E-007     0.10000000E+002                6
 RTBSE| Simulation step         Convergence     Electron number  ETRS Iterations
 RTBSE|            1889     0.31948281E-007     0.10000000E+002                6
 RTBSE| Simulation step         Convergence     Electron number  ETRS Iterations
 RTBSE|            1890     0.31127449E-007     0.10000000E+002                6
 RTBSE| Simulation step         Convergence     Electron number  ETRS Iterations
 RTBSE|            1891     0.29630967E-007     0.10000000E+002                6
 RTBSE| Simulation step         Convergence     Electron number  ETRS Iterations
 RTBSE|            1892     0.27371918E-007     0.10000000E+002                6
 RTBSE| Simulation step         Convergence     Electron number  ETRS Iterations
 RTBSE|            1893     0.24300675E-007     0.10000000E+002                6
 RTBSE| Simulation step         Convergence     Electron number  ETRS Iterations
 RTBSE|            1894     0.20445060E-007     0.10000000E+002                6
 RTBSE| Simulation step         Convergence     Electron number  ETRS Iterations
 RTBSE|            1895     0.92880462E-007     0.10000000E+002                5
 RTBSE| Simulation step         Convergence     Electron number  ETRS Iterations
 RTBSE|            1896     0.75657488E-007     0.10000000E+002                5
 RTBSE| Simulation step         Convergence     Electron number  ETRS Iterations
 RTBSE|            1897     0.61175510E-007     0.10000000E+002                5
 RTBSE| Simulation step         Convergence     Electron number  ETRS Iterations
 RTBSE|            1898     0.94499597E-007     0.10000000E+002                5
 RTBSE| Simulation step         Convergence     Electron number  ETRS Iterations
 RTBSE|            1899     0.18116360E-007     0.10000000E+002                6
 RTBSE| Simulation step         Convergence     Electron number  ETRS Iterations
 RTBSE|            1900     0.21851102E-007     0.10000000E+002                6
 RTBSE| Simulation step         Convergence     Electron number  ETRS Iterations
 RTBSE|            1901     0.25051888E-007     0.10000000E+002                6
 RTBSE| Simulation step         Convergence     Electron number  ETRS Iterations
 RTBSE|            1902     0.27592542E-007     0.10000000E+002                6
 RTBSE| Simulation step         Convergence     Electron number  ETRS Iterations
 RTBSE|            1903     0.29537237E-007     0.10000000E+002                6
 RTBSE| Simulation step         Convergence     Electron number  ETRS Iterations
 RTBSE|            1904     0.30863217E-007     0.10000000E+002                6
 RTBSE| Simulation step         Convergence     Electron number  ETRS Iterations
 RTBSE|            1905     0.31773457E-007     0.10000000E+002                6
 RTBSE| Simulation step         Convergence     Electron number  ETRS Iterations
 RTBSE|            1906     0.32332799E-007     0.10000000E+002                6
 RTBSE| Simulation step         Convergence     Electron number  ETRS Iterations
 RTBSE|            1907     0.32660475E-007     0.10000000E+002                6
 RTBSE| Simulation step         Convergence     Electron number  ETRS Iterations
 RTBSE|            1908     0.32889313E-007     0.10000000E+002                6
 RTBSE| Simulation step         Convergence     Electron number  ETRS Iterations
 RTBSE|            1909     0.33390169E-007     0.10000000E+002                6
 RTBSE| Simulation step         Convergence     Electron number  ETRS Iterations
 RTBSE|            1910     0.34487123E-007     0.10000000E+002                6
 RTBSE| Simulation step         Convergence     Electron number  ETRS Iterations
 RTBSE|            1911     0.35500176E-007     0.10000000E+002                6
 RTBSE| Simulation step         Convergence     Electron number  ETRS Iterations
 RTBSE|            1912     0.36311588E-007     0.10000000E+002                6
 RTBSE| Simulation step         Convergence     Electron number  ETRS Iterations
 RTBSE|            1913     0.36806370E-007     0.10000000E+002                6
 RTBSE| Simulation step         Convergence     Electron number  ETRS Iterations
 RTBSE|            1914     0.36820295E-007     0.10000000E+002                6
 RTBSE| Simulation step         Convergence     Electron number  ETRS Iterations
 RTBSE|            1915     0.36185191E-007     0.10000000E+002                6
 RTBSE| Simulation step         Convergence     Electron number  ETRS Iterations
 RTBSE|            1916     0.34776078E-007     0.10000000E+002                6
 RTBSE| Simulation step         Convergence     Electron number  ETRS Iterations
 RTBSE|            1917     0.32514242E-007     0.10000000E+002                6
 RTBSE| Simulation step         Convergence     Electron number  ETRS Iterations
 RTBSE|            1918     0.29366875E-007     0.10000000E+002                6
 RTBSE| Simulation step         Convergence     Electron number  ETRS Iterations
 RTBSE|            1919     0.25369917E-007     0.10000000E+002                6
 RTBSE| Simulation step         Convergence     Electron number  ETRS Iterations
 RTBSE|            1920     0.20625671E-007     0.10000000E+002                6
 RTBSE| Simulation step         Convergence     Electron number  ETRS Iterations
 RTBSE|            1921     0.94052778E-007     0.10000000E+002                5
 RTBSE| Simulation step         Convergence     Electron number  ETRS Iterations
 RTBSE|            1922     0.73739267E-007     0.10000000E+002                5
 RTBSE| Simulation step         Convergence     Electron number  ETRS Iterations
 RTBSE|            1923     0.67140446E-007     0.10000000E+002                5
 RTBSE| Simulation step         Convergence     Electron number  ETRS Iterations
 RTBSE|            1924     0.15044875E-007     0.10000000E+002                6
 RTBSE| Simulation step         Convergence     Electron number  ETRS Iterations
 RTBSE|            1925     0.19119396E-007     0.10000000E+002                6
 RTBSE| Simulation step         Convergence     Electron number  ETRS Iterations
 RTBSE|            1926     0.22617425E-007     0.10000000E+002                6
 RTBSE| Simulation step         Convergence     Electron number  ETRS Iterations
 RTBSE|            1927     0.25403128E-007     0.10000000E+002                6
 RTBSE| Simulation step         Convergence     Electron number  ETRS Iterations
 RTBSE|            1928     0.27476067E-007     0.10000000E+002                6
 RTBSE| Simulation step         Convergence     Electron number  ETRS Iterations
 RTBSE|            1929     0.28857367E-007     0.10000000E+002                6
 RTBSE| Simulation step         Convergence     Electron number  ETRS Iterations
 RTBSE|            1930     0.29675512E-007     0.10000000E+002                6
 RTBSE| Simulation step         Convergence     Electron number  ETRS Iterations
 RTBSE|            1931     0.30072054E-007     0.10000000E+002                6
 RTBSE| Simulation step         Convergence     Electron number  ETRS Iterations
 RTBSE|            1932     0.30160591E-007     0.10000000E+002                6
 RTBSE| Simulation step         Convergence     Electron number  ETRS Iterations
 RTBSE|            1933     0.30044293E-007     0.10000000E+002                6
 RTBSE| Simulation step         Convergence     Electron number  ETRS Iterations
 RTBSE|            1934     0.29825819E-007     0.10000000E+002                6
 RTBSE| Simulation step         Convergence     Electron number  ETRS Iterations
 RTBSE|            1935     0.29930291E-007     0.10000000E+002                6
 RTBSE| Simulation step         Convergence     Electron number  ETRS Iterations
 RTBSE|            1936     0.30711160E-007     0.10000000E+002                6
 RTBSE| Simulation step         Convergence     Electron number  ETRS Iterations
 RTBSE|            1937     0.31424423E-007     0.10000000E+002                6
 RTBSE| Simulation step         Convergence     Electron number  ETRS Iterations
 RTBSE|            1938     0.32011740E-007     0.10000000E+002                6
 RTBSE| Simulation step         Convergence     Electron number  ETRS Iterations
 RTBSE|            1939     0.32347910E-007     0.10000000E+002                6
 RTBSE| Simulation step         Convergence     Electron number  ETRS Iterations
 RTBSE|            1940     0.32294526E-007     0.10000000E+002                6
 RTBSE| Simulation step         Convergence     Electron number  ETRS Iterations
 RTBSE|            1941     0.31690437E-007     0.10000000E+002                6
 RTBSE| Simulation step         Convergence     Electron number  ETRS Iterations
 RTBSE|            1942     0.30405780E-007     0.10000000E+002                6
 RTBSE| Simulation step         Convergence     Electron number  ETRS Iterations
 RTBSE|            1943     0.28316750E-007     0.10000000E+002                6
 RTBSE| Simulation step         Convergence     Electron number  ETRS Iterations
 RTBSE|            1944     0.25387614E-007     0.10000000E+002                6
 RTBSE| Simulation step         Convergence     Electron number  ETRS Iterations
 RTBSE|            1945     0.21624775E-007     0.10000000E+002                6
 RTBSE| Simulation step         Convergence     Electron number  ETRS Iterations
 RTBSE|            1946     0.97547385E-007     0.10000000E+002                5
 RTBSE| Simulation step         Convergence     Electron number  ETRS Iterations
 RTBSE|            1947     0.80173270E-007     0.10000000E+002                5
 RTBSE| Simulation step         Convergence     Electron number  ETRS Iterations
 RTBSE|            1948     0.64203644E-007     0.10000000E+002                5
 RTBSE| Simulation step         Convergence     Electron number  ETRS Iterations
 RTBSE|            1949     0.87431391E-007     0.10000000E+002                5
 RTBSE| Simulation step         Convergence     Electron number  ETRS Iterations
 RTBSE|            1950     0.17356555E-007     0.10000000E+002                6
 RTBSE| Simulation step         Convergence     Electron number  ETRS Iterations
 RTBSE|            1951     0.21205509E-007     0.10000000E+002                6
 RTBSE| Simulation step         Convergence     Electron number  ETRS Iterations
 RTBSE|            1952     0.24498831E-007     0.10000000E+002                6
 RTBSE| Simulation step         Convergence     Electron number  ETRS Iterations
 RTBSE|            1953     0.27155431E-007     0.10000000E+002                6
 RTBSE| Simulation step         Convergence     Electron number  ETRS Iterations
 RTBSE|            1954     0.29178117E-007     0.10000000E+002                6
 RTBSE| Simulation step         Convergence     Electron number  ETRS Iterations
 RTBSE|            1955     0.30677536E-007     0.10000000E+002                6
 RTBSE| Simulation step         Convergence     Electron number  ETRS Iterations
 RTBSE|            1956     0.31642691E-007     0.10000000E+002                6
 RTBSE| Simulation step         Convergence     Electron number  ETRS Iterations
 RTBSE|            1957     0.32333195E-007     0.10000000E+002                6
 RTBSE| Simulation step         Convergence     Electron number  ETRS Iterations
 RTBSE|            1958     0.32778166E-007     0.10000000E+002                6
 RTBSE| Simulation step         Convergence     Electron number  ETRS Iterations
 RTBSE|            1959     0.33117011E-007     0.10000000E+002                6
 RTBSE| Simulation step         Convergence     Electron number  ETRS Iterations
 RTBSE|            1960     0.33462511E-007     0.10000000E+002                6
 RTBSE| Simulation step         Convergence     Electron number  ETRS Iterations
 RTBSE|            1961     0.34701977E-007     0.10000000E+002                6
 RTBSE| Simulation step         Convergence     Electron number  ETRS Iterations
 RTBSE|            1962     0.35808200E-007     0.10000000E+002                6
 RTBSE| Simulation step         Convergence     Electron number  ETRS Iterations
 RTBSE|            1963     0.36739969E-007     0.10000000E+002                6
 RTBSE| Simulation step         Convergence     Electron number  ETRS Iterations
 RTBSE|            1964     0.37326928E-007     0.10000000E+002                6
 RTBSE| Simulation step         Convergence     Electron number  ETRS Iterations
 RTBSE|            1965     0.37430201E-007     0.10000000E+002                6
 RTBSE| Simulation step         Convergence     Electron number  ETRS Iterations
 RTBSE|            1966     0.36857310E-007     0.10000000E+002                6
 RTBSE| Simulation step         Convergence     Electron number  ETRS Iterations
 RTBSE|            1967     0.35465685E-007     0.10000000E+002                6
 RTBSE| Simulation step         Convergence     Electron number  ETRS Iterations
 RTBSE|            1968     0.33199606E-007     0.10000000E+002                6
 RTBSE| Simulation step         Convergence     Electron number  ETRS Iterations
 RTBSE|            1969     0.30034392E-007     0.10000000E+002                6
 RTBSE| Simulation step         Convergence     Electron number  ETRS Iterations
 RTBSE|            1970     0.26002090E-007     0.10000000E+002                6
 RTBSE| Simulation step         Convergence     Electron number  ETRS Iterations
 RTBSE|            1971     0.21227414E-007     0.10000000E+002                6
 RTBSE| Simulation step         Convergence     Electron number  ETRS Iterations
 RTBSE|            1972     0.96152799E-007     0.10000000E+002                5
 RTBSE| Simulation step         Convergence     Electron number  ETRS Iterations
 RTBSE|            1973     0.75287634E-007     0.10000000E+002                5
 RTBSE| Simulation step         Convergence     Electron number  ETRS Iterations
 RTBSE|            1974     0.63963470E-007     0.10000000E+002                5
 RTBSE| Simulation step         Convergence     Electron number  ETRS Iterations
 RTBSE|            1975     0.14675198E-007     0.10000000E+002                6
 RTBSE| Simulation step         Convergence     Electron number  ETRS Iterations
 RTBSE|            1976     0.18737708E-007     0.10000000E+002                6
 RTBSE| Simulation step         Convergence     Electron number  ETRS Iterations
 RTBSE|            1977     0.22196661E-007     0.10000000E+002                6
 RTBSE| Simulation step         Convergence     Electron number  ETRS Iterations
 RTBSE|            1978     0.24920258E-007     0.10000000E+002                6
 RTBSE| Simulation step         Convergence     Electron number  ETRS Iterations
 RTBSE|            1979     0.26961398E-007     0.10000000E+002                6
 RTBSE| Simulation step         Convergence     Electron number  ETRS Iterations
 RTBSE|            1980     0.28310248E-007     0.10000000E+002                6
 RTBSE| Simulation step         Convergence     Electron number  ETRS Iterations
 RTBSE|            1981     0.29142885E-007     0.10000000E+002                6
 RTBSE| Simulation step         Convergence     Electron number  ETRS Iterations
 RTBSE|            1982     0.29547122E-007     0.10000000E+002                6
 RTBSE| Simulation step         Convergence     Electron number  ETRS Iterations
 RTBSE|            1983     0.29653155E-007     0.10000000E+002                6
 RTBSE| Simulation step         Convergence     Electron number  ETRS Iterations
 RTBSE|            1984     0.29635559E-007     0.10000000E+002                6
 RTBSE| Simulation step         Convergence     Electron number  ETRS Iterations
 RTBSE|            1985     0.29536822E-007     0.10000000E+002                6
 RTBSE| Simulation step         Convergence     Electron number  ETRS Iterations
 RTBSE|            1986     0.29444942E-007     0.10000000E+002                6
 RTBSE| Simulation step         Convergence     Electron number  ETRS Iterations
 RTBSE|            1987     0.30361621E-007     0.10000000E+002                6
 RTBSE| Simulation step         Convergence     Electron number  ETRS Iterations
 RTBSE|            1988     0.31265242E-007     0.10000000E+002                6
 RTBSE| Simulation step         Convergence     Electron number  ETRS Iterations
 RTBSE|            1989     0.32039975E-007     0.10000000E+002                6
 RTBSE| Simulation step         Convergence     Electron number  ETRS Iterations
 RTBSE|            1990     0.32585425E-007     0.10000000E+002                6
 RTBSE| Simulation step         Convergence     Electron number  ETRS Iterations
 RTBSE|            1991     0.32747834E-007     0.10000000E+002                6
 RTBSE| Simulation step         Convergence     Electron number  ETRS Iterations
 RTBSE|            1992     0.32334329E-007     0.10000000E+002                6
 RTBSE| Simulation step         Convergence     Electron number  ETRS Iterations
 RTBSE|            1993     0.31206282E-007     0.10000000E+002                6
 RTBSE| Simulation step         Convergence     Electron number  ETRS Iterations
 RTBSE|            1994     0.29233605E-007     0.10000000E+002                6
 RTBSE| Simulation step         Convergence     Electron number  ETRS Iterations
 RTBSE|            1995     0.26370708E-007     0.10000000E+002                6
 RTBSE| Simulation step         Convergence     Electron number  ETRS Iterations
 RTBSE|            1996     0.22629002E-007     0.10000000E+002                6
 RTBSE| Simulation step         Convergence     Electron number  ETRS Iterations
 RTBSE|            1997     0.18108110E-007     0.10000000E+002                6
 RTBSE| Simulation step         Convergence     Electron number  ETRS Iterations
 RTBSE|            1998     0.83756390E-007     0.10000000E+002                5
 RTBSE| Simulation step         Convergence     Electron number  ETRS Iterations
 RTBSE|            1999     0.66716613E-007     0.10000000E+002                5
 RTBSE| Simulation step         Convergence     Electron number  ETRS Iterations
 RTBSE|            2000     0.82805650E-007     0.10000000E+002                5
 RTBSE| Simulation step         Convergence     Electron number  ETRS Iterations
 RTBSE|            2001     0.16891668E-007     0.10000000E+002                6
 RTBSE| Simulation step         Convergence     Electron number  ETRS Iterations
 RTBSE|            2002     0.20789816E-007     0.10000000E+002                6
 RTBSE| Simulation step         Convergence     Electron number  ETRS Iterations
 RTBSE|            2003     0.24145347E-007     0.10000000E+002                6
 RTBSE| Simulation step         Convergence     Electron number  ETRS Iterations
 RTBSE|            2004     0.26839995E-007     0.10000000E+002                6
 RTBSE| Simulation step         Convergence     Electron number  ETRS Iterations
 RTBSE|            2005     0.28918860E-007     0.10000000E+002                6
 RTBSE| Simulation step         Convergence     Electron number  ETRS Iterations
 RTBSE|            2006     0.30424929E-007     0.10000000E+002                6
 RTBSE| Simulation step         Convergence     Electron number  ETRS Iterations
 RTBSE|            2007     0.31486220E-007     0.10000000E+002                6
 RTBSE| Simulation step         Convergence     Electron number  ETRS Iterations
 RTBSE|            2008     0.32180516E-007     0.10000000E+002                6
 RTBSE| Simulation step         Convergence     Electron number  ETRS Iterations
 RTBSE|            2009     0.32703256E-007     0.10000000E+002                6
 RTBSE| Simulation step         Convergence     Electron number  ETRS Iterations
 RTBSE|            2010     0.33080919E-007     0.10000000E+002                6
 RTBSE| Simulation step         Convergence     Electron number  ETRS Iterations
 RTBSE|            2011     0.33377519E-007     0.10000000E+002                6
 RTBSE| Simulation step         Convergence     Electron number  ETRS Iterations
 RTBSE|            2012     0.34578718E-007     0.10000000E+002                6
 RTBSE| Simulation step         Convergence     Electron number  ETRS Iterations
 RTBSE|            2013     0.35789840E-007     0.10000000E+002                6
 RTBSE| Simulation step         Convergence     Electron number  ETRS Iterations
 RTBSE|            2014     0.36787455E-007     0.10000000E+002                6
 RTBSE| Simulation step         Convergence     Electron number  ETRS Iterations
 RTBSE|            2015     0.37451360E-007     0.10000000E+002                6
 RTBSE| Simulation step         Convergence     Electron number  ETRS Iterations
 RTBSE|            2016     0.37612879E-007     0.10000000E+002                6
 RTBSE| Simulation step         Convergence     Electron number  ETRS Iterations
 RTBSE|            2017     0.37097378E-007     0.10000000E+002                6
 RTBSE| Simulation step         Convergence     Electron number  ETRS Iterations
 RTBSE|            2018     0.35790573E-007     0.10000000E+002                6
 RTBSE| Simulation step         Convergence     Electron number  ETRS Iterations
 RTBSE|            2019     0.33584242E-007     0.10000000E+002                6
 RTBSE| Simulation step         Convergence     Electron number  ETRS Iterations
 RTBSE|            2020     0.30462867E-007     0.10000000E+002                6
 RTBSE| Simulation step         Convergence     Electron number  ETRS Iterations
 RTBSE|            2021     0.26458612E-007     0.10000000E+002                6
 RTBSE| Simulation step         Convergence     Electron number  ETRS Iterations
 RTBSE|            2022     0.21708668E-007     0.10000000E+002                6
 RTBSE| Simulation step         Convergence     Electron number  ETRS Iterations
 RTBSE|            2023     0.97787047E-007     0.10000000E+002                5
 RTBSE| Simulation step         Convergence     Electron number  ETRS Iterations
 RTBSE|            2024     0.76708904E-007     0.10000000E+002                5
 RTBSE| Simulation step         Convergence     Electron number  ETRS Iterations
 RTBSE|            2025     0.59986060E-007     0.10000000E+002                5
 RTBSE| Simulation step         Convergence     Electron number  ETRS Iterations
 RTBSE|            2026     0.97730496E-007     0.10000000E+002                5
 RTBSE| Simulation step         Convergence     Electron number  ETRS Iterations
 RTBSE|            2027     0.18015958E-007     0.10000000E+002                6
 RTBSE| Simulation step         Convergence     Electron number  ETRS Iterations
 RTBSE|            2028     0.21420018E-007     0.10000000E+002                6
 RTBSE| Simulation step         Convergence     Electron number  ETRS Iterations
 RTBSE|            2029     0.24147763E-007     0.10000000E+002                6
 RTBSE| Simulation step         Convergence     Electron number  ETRS Iterations
 RTBSE|            2030     0.26148730E-007     0.10000000E+002                6
 RTBSE| Simulation step         Convergence     Electron number  ETRS Iterations
 RTBSE|            2031     0.27533836E-007     0.10000000E+002                6
 RTBSE| Simulation step         Convergence     Electron number  ETRS Iterations
 RTBSE|            2032     0.28394376E-007     0.10000000E+002                6
 RTBSE| Simulation step         Convergence     Electron number  ETRS Iterations
 RTBSE|            2033     0.28868083E-007     0.10000000E+002                6
 RTBSE| Simulation step         Convergence     Electron number  ETRS Iterations
 RTBSE|            2034     0.29112622E-007     0.10000000E+002                6
 RTBSE| Simulation step         Convergence     Electron number  ETRS Iterations
 RTBSE|            2035     0.29252495E-007     0.10000000E+002                6
 RTBSE| Simulation step         Convergence     Electron number  ETRS Iterations
 RTBSE|            2036     0.29334821E-007     0.10000000E+002                6
 RTBSE| Simulation step         Convergence     Electron number  ETRS Iterations
 RTBSE|            2037     0.29415274E-007     0.10000000E+002                6
 RTBSE| Simulation step         Convergence     Electron number  ETRS Iterations
 RTBSE|            2038     0.30108173E-007     0.10000000E+002                6
 RTBSE| Simulation step         Convergence     Electron number  ETRS Iterations
 RTBSE|            2039     0.31230303E-007     0.10000000E+002                6
 RTBSE| Simulation step         Convergence     Electron number  ETRS Iterations
 RTBSE|            2040     0.32250152E-007     0.10000000E+002                6
 RTBSE| Simulation step         Convergence     Electron number  ETRS Iterations
 RTBSE|            2041     0.33015937E-007     0.10000000E+002                6
 RTBSE| Simulation step         Convergence     Electron number  ETRS Iterations
 RTBSE|            2042     0.33349712E-007     0.10000000E+002                6
 RTBSE| Simulation step         Convergence     Electron number  ETRS Iterations
 RTBSE|            2043     0.33084256E-007     0.10000000E+002                6
 RTBSE| Simulation step         Convergence     Electron number  ETRS Iterations
 RTBSE|            2044     0.32058919E-007     0.10000000E+002                6
 RTBSE| Simulation step         Convergence     Electron number  ETRS Iterations
 RTBSE|            2045     0.30161077E-007     0.10000000E+002                6
 RTBSE| Simulation step         Convergence     Electron number  ETRS Iterations
 RTBSE|            2046     0.27320159E-007     0.10000000E+002                6
 RTBSE| Simulation step         Convergence     Electron number  ETRS Iterations
 RTBSE|            2047     0.23563626E-007     0.10000000E+002                6
 RTBSE| Simulation step         Convergence     Electron number  ETRS Iterations
 RTBSE|            2048     0.18989077E-007     0.10000000E+002                6
 RTBSE| Simulation step         Convergence     Electron number  ETRS Iterations
 RTBSE|            2049     0.86744246E-007     0.10000000E+002                5
 RTBSE| Simulation step         Convergence     Electron number  ETRS Iterations
 RTBSE|            2050     0.68767047E-007     0.10000000E+002                5
 RTBSE| Simulation step         Convergence     Electron number  ETRS Iterations
 RTBSE|            2051     0.78584695E-007     0.10000000E+002                5
 RTBSE| Simulation step         Convergence     Electron number  ETRS Iterations
 RTBSE|            2052     0.16419442E-007     0.10000000E+002                6
 RTBSE| Simulation step         Convergence     Electron number  ETRS Iterations
 RTBSE|            2053     0.20334604E-007     0.10000000E+002                6
 RTBSE| Simulation step         Convergence     Electron number  ETRS Iterations
 RTBSE|            2054     0.23712145E-007     0.10000000E+002                6
 RTBSE| Simulation step         Convergence     Electron number  ETRS Iterations
 RTBSE|            2055     0.26395935E-007     0.10000000E+002                6
 RTBSE| Simulation step         Convergence     Electron number  ETRS Iterations
 RTBSE|            2056     0.28463633E-007     0.10000000E+002                6
 RTBSE| Simulation step         Convergence     Electron number  ETRS Iterations
 RTBSE|            2057     0.29944938E-007     0.10000000E+002                6
 RTBSE| Simulation step         Convergence     Electron number  ETRS Iterations
 RTBSE|            2058     0.31010586E-007     0.10000000E+002                6
 RTBSE| Simulation step         Convergence     Electron number  ETRS Iterations
 RTBSE|            2059     0.31745958E-007     0.10000000E+002                6
 RTBSE| Simulation step         Convergence     Electron number  ETRS Iterations
 RTBSE|            2060     0.32318604E-007     0.10000000E+002                6
 RTBSE| Simulation step         Convergence     Electron number  ETRS Iterations
 RTBSE|            2061     0.32763021E-007     0.10000000E+002                6
 RTBSE| Simulation step         Convergence     Electron number  ETRS Iterations
 RTBSE|            2062     0.33198438E-007     0.10000000E+002                6
 RTBSE| Simulation step         Convergence     Electron number  ETRS Iterations
 RTBSE|            2063     0.34170669E-007     0.10000000E+002                6
 RTBSE| Simulation step         Convergence     Electron number  ETRS Iterations
 RTBSE|            2064     0.35512542E-007     0.10000000E+002                6
 RTBSE| Simulation step         Convergence     Electron number  ETRS Iterations
 RTBSE|            2065     0.36692214E-007     0.10000000E+002                6
 RTBSE| Simulation step         Convergence     Electron number  ETRS Iterations
 RTBSE|            2066     0.37546104E-007     0.10000000E+002                6
 RTBSE| Simulation step         Convergence     Electron number  ETRS Iterations
 RTBSE|            2067     0.37892572E-007     0.10000000E+002                6
 RTBSE| Simulation step         Convergence     Electron number  ETRS Iterations
 RTBSE|            2068     0.37569675E-007     0.10000000E+002                6
 RTBSE| Simulation step         Convergence     Electron number  ETRS Iterations
 RTBSE|            2069     0.36413253E-007     0.10000000E+002                6
 RTBSE| Simulation step         Convergence     Electron number  ETRS Iterations
 RTBSE|            2070     0.34310918E-007     0.10000000E+002                6
 RTBSE| Simulation step         Convergence     Electron number  ETRS Iterations
 RTBSE|            2071     0.31276431E-007     0.10000000E+002                6
 RTBSE| Simulation step         Convergence     Electron number  ETRS Iterations
 RTBSE|            2072     0.27344424E-007     0.10000000E+002                6
 RTBSE| Simulation step         Convergence     Electron number  ETRS Iterations
 RTBSE|            2073     0.22647401E-007     0.10000000E+002                6
 RTBSE| Simulation step         Convergence     Electron number  ETRS Iterations
 RTBSE|            2074     0.17357690E-007     0.10000000E+002                6
 RTBSE| Simulation step         Convergence     Electron number  ETRS Iterations
 RTBSE|            2075     0.79987398E-007     0.10000000E+002                5
 RTBSE| Simulation step         Convergence     Electron number  ETRS Iterations
 RTBSE|            2076     0.62102351E-007     0.10000000E+002                5
 RTBSE| Simulation step         Convergence     Electron number  ETRS Iterations
 RTBSE|            2077     0.91420844E-007     0.10000000E+002                5
 RTBSE| Simulation step         Convergence     Electron number  ETRS Iterations
 RTBSE|            2078     0.17277618E-007     0.10000000E+002                6
 RTBSE| Simulation step         Convergence     Electron number  ETRS Iterations
 RTBSE|            2079     0.20730273E-007     0.10000000E+002                6
 RTBSE| Simulation step         Convergence     Electron number  ETRS Iterations
 RTBSE|            2080     0.23507199E-007     0.10000000E+002                6
 RTBSE| Simulation step         Convergence     Electron number  ETRS Iterations
 RTBSE|            2081     0.25585198E-007     0.10000000E+002                6
 RTBSE| Simulation step         Convergence     Electron number  ETRS Iterations
 RTBSE|            2082     0.27048003E-007     0.10000000E+002                6
 RTBSE| Simulation step         Convergence     Electron number  ETRS Iterations
 RTBSE|            2083     0.28009307E-007     0.10000000E+002                6
 RTBSE| Simulation step         Convergence     Electron number  ETRS Iterations
 RTBSE|            2084     0.28586585E-007     0.10000000E+002                6
 RTBSE| Simulation step         Convergence     Electron number  ETRS Iterations
 RTBSE|            2085     0.28957257E-007     0.10000000E+002                6
 RTBSE| Simulation step         Convergence     Electron number  ETRS Iterations
 RTBSE|            2086     0.29231357E-007     0.10000000E+002                6
 RTBSE| Simulation step         Convergence     Electron number  ETRS Iterations
 RTBSE|            2087     0.29478343E-007     0.10000000E+002                6
 RTBSE| Simulation step         Convergence     Electron number  ETRS Iterations
 RTBSE|            2088     0.29718211E-007     0.10000000E+002                6
 RTBSE| Simulation step         Convergence     Electron number  ETRS Iterations
 RTBSE|            2089     0.30235137E-007     0.10000000E+002                6
 RTBSE| Simulation step         Convergence     Electron number  ETRS Iterations
 RTBSE|            2090     0.31502843E-007     0.10000000E+002                6
 RTBSE| Simulation step         Convergence     Electron number  ETRS Iterations
 RTBSE|            2091     0.32666442E-007     0.10000000E+002                6
 RTBSE| Simulation step         Convergence     Electron number  ETRS Iterations
 RTBSE|            2092     0.33544681E-007     0.10000000E+002                6
 RTBSE| Simulation step         Convergence     Electron number  ETRS Iterations
 RTBSE|            2093     0.33975066E-007     0.10000000E+002                6
 RTBSE| Simulation step         Convergence     Electron number  ETRS Iterations
 RTBSE|            2094     0.33772746E-007     0.10000000E+002                6
 RTBSE| Simulation step         Convergence     Electron number  ETRS Iterations
 RTBSE|            2095     0.32787827E-007     0.10000000E+002                6
 RTBSE| Simulation step         Convergence     Electron number  ETRS Iterations
 RTBSE|            2096     0.30875998E-007     0.10000000E+002                6
 RTBSE| Simulation step         Convergence     Electron number  ETRS Iterations
 RTBSE|            2097     0.28013438E-007     0.10000000E+002                6
 RTBSE| Simulation step         Convergence     Electron number  ETRS Iterations
 RTBSE|            2098     0.24209770E-007     0.10000000E+002                6
 RTBSE| Simulation step         Convergence     Electron number  ETRS Iterations
 RTBSE|            2099     0.19587706E-007     0.10000000E+002                6
 RTBSE| Simulation step         Convergence     Electron number  ETRS Iterations
 RTBSE|            2100     0.88806968E-007     0.10000000E+002                5
 RTBSE| Simulation step         Convergence     Electron number  ETRS Iterations
 RTBSE|            2101     0.70187674E-007     0.10000000E+002                5
 RTBSE| Simulation step         Convergence     Electron number  ETRS Iterations
 RTBSE|            2102     0.75309928E-007     0.10000000E+002                5
 RTBSE| Simulation step         Convergence     Electron number  ETRS Iterations
 RTBSE|            2103     0.16018192E-007     0.10000000E+002                6
 RTBSE| Simulation step         Convergence     Electron number  ETRS Iterations
 RTBSE|            2104     0.19918352E-007     0.10000000E+002                6
 RTBSE| Simulation step         Convergence     Electron number  ETRS Iterations
 RTBSE|            2105     0.23257595E-007     0.10000000E+002                6
 RTBSE| Simulation step         Convergence     Electron number  ETRS Iterations
 RTBSE|            2106     0.25941159E-007     0.10000000E+002                6
 RTBSE| Simulation step         Convergence     Electron number  ETRS Iterations
 RTBSE|            2107     0.27959989E-007     0.10000000E+002                6
 RTBSE| Simulation step         Convergence     Electron number  ETRS Iterations
 RTBSE|            2108     0.29466925E-007     0.10000000E+002                6
 RTBSE| Simulation step         Convergence     Electron number  ETRS Iterations
 RTBSE|            2109     0.30524125E-007     0.10000000E+002                6
 RTBSE| Simulation step         Convergence     Electron number  ETRS Iterations
 RTBSE|            2110     0.31305420E-007     0.10000000E+002                6
 RTBSE| Simulation step         Convergence     Electron number  ETRS Iterations
 RTBSE|            2111     0.31946905E-007     0.10000000E+002                6
 RTBSE| Simulation step         Convergence     Electron number  ETRS Iterations
 RTBSE|            2112     0.32525214E-007     0.10000000E+002                6
 RTBSE| Simulation step         Convergence     Electron number  ETRS Iterations
 RTBSE|            2113     0.33065755E-007     0.10000000E+002                6
 RTBSE| Simulation step         Convergence     Electron number  ETRS Iterations
 RTBSE|            2114     0.33819476E-007     0.10000000E+002                6
 RTBSE| Simulation step         Convergence     Electron number  ETRS Iterations
 RTBSE|            2115     0.35346136E-007     0.10000000E+002                6
 RTBSE| Simulation step         Convergence     Electron number  ETRS Iterations
 RTBSE|            2116     0.36718201E-007     0.10000000E+002                6
 RTBSE| Simulation step         Convergence     Electron number  ETRS Iterations
 RTBSE|            2117     0.37743984E-007     0.10000000E+002                6
 RTBSE| Simulation step         Convergence     Electron number  ETRS Iterations
 RTBSE|            2118     0.38268200E-007     0.10000000E+002                6
 RTBSE| Simulation step         Convergence     Electron number  ETRS Iterations
 RTBSE|            2119     0.38093695E-007     0.10000000E+002                6
 RTBSE| Simulation step         Convergence     Electron number  ETRS Iterations
 RTBSE|            2120     0.37058269E-007     0.10000000E+002                6
 RTBSE| Simulation step         Convergence     Electron number  ETRS Iterations
 RTBSE|            2121     0.35082246E-007     0.10000000E+002                6
 RTBSE| Simulation step         Convergence     Electron number  ETRS Iterations
 RTBSE|            2122     0.32113067E-007     0.10000000E+002                6
 RTBSE| Simulation step         Convergence     Electron number  ETRS Iterations
 RTBSE|            2123     0.28215804E-007     0.10000000E+002                6
 RTBSE| Simulation step         Convergence     Electron number  ETRS Iterations
 RTBSE|            2124     0.23522001E-007     0.10000000E+002                6
 RTBSE| Simulation step         Convergence     Electron number  ETRS Iterations
 RTBSE|            2125     0.18199821E-007     0.10000000E+002                6
 RTBSE| Simulation step         Convergence     Electron number  ETRS Iterations
 RTBSE|            2126     0.83060342E-007     0.10000000E+002                5
 RTBSE| Simulation step         Convergence     Electron number  ETRS Iterations
 RTBSE|            2127     0.64274569E-007     0.10000000E+002                5
 RTBSE| Simulation step         Convergence     Electron number  ETRS Iterations
 RTBSE|            2128     0.86785678E-007     0.10000000E+002                5
 RTBSE| Simulation step         Convergence     Electron number  ETRS Iterations
 RTBSE|            2129     0.16798346E-007     0.10000000E+002                6
 RTBSE| Simulation step         Convergence     Electron number  ETRS Iterations
 RTBSE|            2130     0.20279751E-007     0.10000000E+002                6
 RTBSE| Simulation step         Convergence     Electron number  ETRS Iterations
 RTBSE|            2131     0.23063669E-007     0.10000000E+002                6
 RTBSE| Simulation step         Convergence     Electron number  ETRS Iterations
 RTBSE|            2132     0.25215440E-007     0.10000000E+002                6
 RTBSE| Simulation step         Convergence     Electron number  ETRS Iterations
 RTBSE|            2133     0.26733649E-007     0.10000000E+002                6
 RTBSE| Simulation step         Convergence     Electron number  ETRS Iterations
 RTBSE|            2134     0.27711242E-007     0.10000000E+002                6
 RTBSE| Simulation step         Convergence     Electron number  ETRS Iterations
 RTBSE|            2135     0.28379004E-007     0.10000000E+002                6
 RTBSE| Simulation step         Convergence     Electron number  ETRS Iterations
 RTBSE|            2136     0.28827633E-007     0.10000000E+002                6
 RTBSE| Simulation step         Convergence     Electron number  ETRS Iterations
 RTBSE|            2137     0.29164455E-007     0.10000000E+002                6
 RTBSE| Simulation step         Convergence     Electron number  ETRS Iterations
 RTBSE|            2138     0.29503370E-007     0.10000000E+002                6
 RTBSE| Simulation step         Convergence     Electron number  ETRS Iterations
 RTBSE|            2139     0.29809438E-007     0.10000000E+002                6
 RTBSE| Simulation step         Convergence     Electron number  ETRS Iterations
 RTBSE|            2140     0.30178189E-007     0.10000000E+002                6
 RTBSE| Simulation step         Convergence     Electron number  ETRS Iterations
 RTBSE|            2141     0.31527678E-007     0.10000000E+002                6
 RTBSE| Simulation step         Convergence     Electron number  ETRS Iterations
 RTBSE|            2142     0.32753746E-007     0.10000000E+002                6
 RTBSE| Simulation step         Convergence     Electron number  ETRS Iterations
 RTBSE|            2143     0.33712771E-007     0.10000000E+002                6
 RTBSE| Simulation step         Convergence     Electron number  ETRS Iterations
 RTBSE|            2144     0.34199891E-007     0.10000000E+002                6
 RTBSE| Simulation step         Convergence     Electron number  ETRS Iterations
 RTBSE|            2145     0.34043197E-007     0.10000000E+002                6
 RTBSE| Simulation step         Convergence     Electron number  ETRS Iterations
 RTBSE|            2146     0.33066331E-007     0.10000000E+002                6
 RTBSE| Simulation step         Convergence     Electron number  ETRS Iterations
 RTBSE|            2147     0.31191798E-007     0.10000000E+002                6
 RTBSE| Simulation step         Convergence     Electron number  ETRS Iterations
 RTBSE|            2148     0.28348374E-007     0.10000000E+002                6
 RTBSE| Simulation step         Convergence     Electron number  ETRS Iterations
 RTBSE|            2149     0.24581229E-007     0.10000000E+002                6
 RTBSE| Simulation step         Convergence     Electron number  ETRS Iterations
 RTBSE|            2150     0.19975533E-007     0.10000000E+002                6
 RTBSE| Simulation step         Convergence     Electron number  ETRS Iterations
 RTBSE|            2151     0.89960479E-007     0.10000000E+002                5
 RTBSE| Simulation step         Convergence     Electron number  ETRS Iterations
 RTBSE|            2152     0.70938984E-007     0.10000000E+002                5
 RTBSE| Simulation step         Convergence     Electron number  ETRS Iterations
 RTBSE|            2153     0.70669603E-007     0.10000000E+002                5
 RTBSE| Simulation step         Convergence     Electron number  ETRS Iterations
 RTBSE|            2154     0.15352942E-007     0.10000000E+002                6
 RTBSE| Simulation step         Convergence     Electron number  ETRS Iterations
 RTBSE|            2155     0.19154279E-007     0.10000000E+002                6
 RTBSE| Simulation step         Convergence     Electron number  ETRS Iterations
 RTBSE|            2156     0.22448702E-007     0.10000000E+002                6
 RTBSE| Simulation step         Convergence     Electron number  ETRS Iterations
 RTBSE|            2157     0.25082836E-007     0.10000000E+002                6
 RTBSE| Simulation step         Convergence     Electron number  ETRS Iterations
 RTBSE|            2158     0.27105130E-007     0.10000000E+002                6
 RTBSE| Simulation step         Convergence     Electron number  ETRS Iterations
 RTBSE|            2159     0.28601875E-007     0.10000000E+002                6
 RTBSE| Simulation step         Convergence     Electron number  ETRS Iterations
 RTBSE|            2160     0.29702641E-007     0.10000000E+002                6
 RTBSE| Simulation step         Convergence     Electron number  ETRS Iterations
 RTBSE|            2161     0.30610744E-007     0.10000000E+002                6
 RTBSE| Simulation step         Convergence     Electron number  ETRS Iterations
 RTBSE|            2162     0.31404325E-007     0.10000000E+002                6
 RTBSE| Simulation step         Convergence     Electron number  ETRS Iterations
 RTBSE|            2163     0.32168524E-007     0.10000000E+002                6
 RTBSE| Simulation step         Convergence     Electron number  ETRS Iterations
 RTBSE|            2164     0.32907996E-007     0.10000000E+002                6
 RTBSE| Simulation step         Convergence     Electron number  ETRS Iterations
 RTBSE|            2165     0.33641776E-007     0.10000000E+002                6
 RTBSE| Simulation step         Convergence     Electron number  ETRS Iterations
 RTBSE|            2166     0.35176466E-007     0.10000000E+002                6
 RTBSE| Simulation step         Convergence     Electron number  ETRS Iterations
 RTBSE|            2167     0.36774549E-007     0.10000000E+002                6
 RTBSE| Simulation step         Convergence     Electron number  ETRS Iterations
 RTBSE|            2168     0.38055593E-007     0.10000000E+002                6
 RTBSE| Simulation step         Convergence     Electron number  ETRS Iterations
 RTBSE|            2169     0.38792689E-007     0.10000000E+002                6
 RTBSE| Simulation step         Convergence     Electron number  ETRS Iterations
 RTBSE|            2170     0.38802963E-007     0.10000000E+002                6
 RTBSE| Simulation step         Convergence     Electron number  ETRS Iterations
 RTBSE|            2171     0.37905948E-007     0.10000000E+002                6
 RTBSE| Simulation step         Convergence     Electron number  ETRS Iterations
 RTBSE|            2172     0.36018313E-007     0.10000000E+002                6
 RTBSE| Simulation step         Convergence     Electron number  ETRS Iterations
 RTBSE|            2173     0.33106255E-007     0.10000000E+002                6
 RTBSE| Simulation step         Convergence     Electron number  ETRS Iterations
 RTBSE|            2174     0.29205009E-007     0.10000000E+002                6
 RTBSE| Simulation step         Convergence     Electron number  ETRS Iterations
 RTBSE|            2175     0.24475468E-007     0.10000000E+002                6
 RTBSE| Simulation step         Convergence     Electron number  ETRS Iterations
 RTBSE|            2176     0.19101940E-007     0.10000000E+002                6
 RTBSE| Simulation step         Convergence     Electron number  ETRS Iterations
 RTBSE|            2177     0.86221256E-007     0.10000000E+002                5
 RTBSE| Simulation step         Convergence     Electron number  ETRS Iterations
 RTBSE|            2178     0.66400670E-007     0.10000000E+002                5
 RTBSE| Simulation step         Convergence     Electron number  ETRS Iterations
 RTBSE|            2179     0.82806183E-007     0.10000000E+002                5
 RTBSE| Simulation step         Convergence     Electron number  ETRS Iterations
 RTBSE|            2180     0.16369378E-007     0.10000000E+002                6
 RTBSE| Simulation step         Convergence     Electron number  ETRS Iterations
 RTBSE|            2181     0.19861774E-007     0.10000000E+002                6
 RTBSE| Simulation step         Convergence     Electron number  ETRS Iterations
 RTBSE|            2182     0.22703741E-007     0.10000000E+002                6
 RTBSE| Simulation step         Convergence     Electron number  ETRS Iterations
 RTBSE|            2183     0.24832383E-007     0.10000000E+002                6
 RTBSE| Simulation step         Convergence     Electron number  ETRS Iterations
 RTBSE|            2184     0.26351982E-007     0.10000000E+002                6
 RTBSE| Simulation step         Convergence     Electron number  ETRS Iterations
 RTBSE|            2185     0.27380382E-007     0.10000000E+002                6
 RTBSE| Simulation step         Convergence     Electron number  ETRS Iterations
 RTBSE|            2186     0.28048072E-007     0.10000000E+002                6
 RTBSE| Simulation step         Convergence     Electron number  ETRS Iterations
 RTBSE|            2187     0.28503992E-007     0.10000000E+002                6
 RTBSE| Simulation step         Convergence     Electron number  ETRS Iterations
 RTBSE|            2188     0.28898971E-007     0.10000000E+002                6
 RTBSE| Simulation step         Convergence     Electron number  ETRS Iterations
 RTBSE|            2189     0.29274962E-007     0.10000000E+002                6
 RTBSE| Simulation step         Convergence     Electron number  ETRS Iterations
 RTBSE|            2190     0.29668554E-007     0.10000000E+002                6
 RTBSE| Simulation step         Convergence     Electron number  ETRS Iterations
 RTBSE|            2191     0.30041683E-007     0.10000000E+002                6
 RTBSE| Simulation step         Convergence     Electron number  ETRS Iterations
 RTBSE|            2192     0.31263173E-007     0.10000000E+002                6
 RTBSE| Simulation step         Convergence     Electron number  ETRS Iterations
 RTBSE|            2193     0.32580684E-007     0.10000000E+002                6
 RTBSE| Simulation step         Convergence     Electron number  ETRS Iterations
 RTBSE|            2194     0.33641234E-007     0.10000000E+002                6
 RTBSE| Simulation step         Convergence     Electron number  ETRS Iterations
 RTBSE|            2195     0.34258944E-007     0.10000000E+002                6
 RTBSE| Simulation step         Convergence     Electron number  ETRS Iterations
 RTBSE|            2196     0.34235024E-007     0.10000000E+002                6
 RTBSE| Simulation step         Convergence     Electron number  ETRS Iterations
 RTBSE|            2197     0.33393948E-007     0.10000000E+002                6
 RTBSE| Simulation step         Convergence     Electron number  ETRS Iterations
 RTBSE|            2198     0.31635374E-007     0.10000000E+002                6
 RTBSE| Simulation step         Convergence     Electron number  ETRS Iterations
 RTBSE|            2199     0.28909385E-007     0.10000000E+002                6
 RTBSE| Simulation step         Convergence     Electron number  ETRS Iterations
 RTBSE|            2200     0.25250964E-007     0.10000000E+002                6
 RTBSE| Simulation step         Convergence     Electron number  ETRS Iterations
 RTBSE|            2201     0.20751729E-007     0.10000000E+002                6
 RTBSE| Simulation step         Convergence     Electron number  ETRS Iterations
 RTBSE|            2202     0.92774504E-007     0.10000000E+002                5
 RTBSE| Simulation step         Convergence     Electron number  ETRS Iterations
 RTBSE|            2203     0.73648431E-007     0.10000000E+002                5
 RTBSE| Simulation step         Convergence     Electron number  ETRS Iterations
 RTBSE|            2204     0.62978966E-007     0.10000000E+002                5
 RTBSE| Simulation step         Convergence     Electron number  ETRS Iterations
 RTBSE|            2205     0.99155279E-007     0.10000000E+002                5
 RTBSE| Simulation step         Convergence     Electron number  ETRS Iterations
 RTBSE|            2206     0.18242229E-007     0.10000000E+002                6
 RTBSE| Simulation step         Convergence     Electron number  ETRS Iterations
 RTBSE|            2207     0.21536525E-007     0.10000000E+002                6
 RTBSE| Simulation step         Convergence     Electron number  ETRS Iterations
 RTBSE|            2208     0.24237065E-007     0.10000000E+002                6
 RTBSE| Simulation step         Convergence     Electron number  ETRS Iterations
 RTBSE|            2209     0.26361491E-007     0.10000000E+002                6
 RTBSE| Simulation step         Convergence     Electron number  ETRS Iterations
 RTBSE|            2210     0.27989720E-007     0.10000000E+002                6
 RTBSE| Simulation step         Convergence     Electron number  ETRS Iterations
 RTBSE|            2211     0.29272619E-007     0.10000000E+002                6
 RTBSE| Simulation step         Convergence     Electron number  ETRS Iterations
 RTBSE|            2212     0.30347985E-007     0.10000000E+002                6
 RTBSE| Simulation step         Convergence     Electron number  ETRS Iterations
 RTBSE|            2213     0.31312080E-007     0.10000000E+002                6
 RTBSE| Simulation step         Convergence     Electron number  ETRS Iterations
 RTBSE|            2214     0.32266991E-007     0.10000000E+002                6
 RTBSE| Simulation step         Convergence     Electron number  ETRS Iterations
 RTBSE|            2215     0.33240766E-007     0.10000000E+002                6
 RTBSE| Simulation step         Convergence     Electron number  ETRS Iterations
 RTBSE|            2216     0.34123908E-007     0.10000000E+002                6
 RTBSE| Simulation step         Convergence     Electron number  ETRS Iterations
 RTBSE|            2217     0.35523882E-007     0.10000000E+002                6
 RTBSE| Simulation step         Convergence     Electron number  ETRS Iterations
 RTBSE|            2218     0.37311446E-007     0.10000000E+002                6
 RTBSE| Simulation step         Convergence     Electron number  ETRS Iterations
 RTBSE|            2219     0.38760787E-007     0.10000000E+002                6
 RTBSE| Simulation step         Convergence     Electron number  ETRS Iterations
 RTBSE|            2220     0.39624144E-007     0.10000000E+002                6
 RTBSE| Simulation step         Convergence     Electron number  ETRS Iterations
 RTBSE|            2221     0.39694125E-007     0.10000000E+002                6
 RTBSE| Simulation step         Convergence     Electron number  ETRS Iterations
 RTBSE|            2222     0.38836991E-007     0.10000000E+002                6
 RTBSE| Simulation step         Convergence     Electron number  ETRS Iterations
 RTBSE|            2223     0.36917857E-007     0.10000000E+002                6
 RTBSE| Simulation step         Convergence     Electron number  ETRS Iterations
 RTBSE|            2224     0.33947554E-007     0.10000000E+002                6
 RTBSE| Simulation step         Convergence     Electron number  ETRS Iterations
 RTBSE|            2225     0.29956675E-007     0.10000000E+002                6
 RTBSE| Simulation step         Convergence     Electron number  ETRS Iterations
 RTBSE|            2226     0.25120867E-007     0.10000000E+002                6
 RTBSE| Simulation step         Convergence     Electron number  ETRS Iterations
 RTBSE|            2227     0.19620479E-007     0.10000000E+002                6
 RTBSE| Simulation step         Convergence     Electron number  ETRS Iterations
 RTBSE|            2228     0.87921365E-007     0.10000000E+002                5
 RTBSE| Simulation step         Convergence     Electron number  ETRS Iterations
 RTBSE|            2229     0.67518986E-007     0.10000000E+002                5
 RTBSE| Simulation step         Convergence     Electron number  ETRS Iterations
 RTBSE|            2230     0.80615160E-007     0.10000000E+002                5
 RTBSE| Simulation step         Convergence     Electron number  ETRS Iterations
 RTBSE|            2231     0.16089379E-007     0.10000000E+002                6
 RTBSE| Simulation step         Convergence     Electron number  ETRS Iterations
 RTBSE|            2232     0.19566904E-007     0.10000000E+002                6
 RTBSE| Simulation step         Convergence     Electron number  ETRS Iterations
 RTBSE|            2233     0.22366266E-007     0.10000000E+002                6
 RTBSE| Simulation step         Convergence     Electron number  ETRS Iterations
 RTBSE|            2234     0.24448425E-007     0.10000000E+002                6
 RTBSE| Simulation step         Convergence     Electron number  ETRS Iterations
 RTBSE|            2235     0.25929128E-007     0.10000000E+002                6
 RTBSE| Simulation step         Convergence     Electron number  ETRS Iterations
 RTBSE|            2236     0.26901563E-007     0.10000000E+002                6
 RTBSE| Simulation step         Convergence     Electron number  ETRS Iterations
 RTBSE|            2237     0.27584902E-007     0.10000000E+002                6
 RTBSE| Simulation step         Convergence     Electron number  ETRS Iterations
 RTBSE|            2238     0.28071904E-007     0.10000000E+002                6
 RTBSE| Simulation step         Convergence     Electron number  ETRS Iterations
 RTBSE|            2239     0.28493612E-007     0.10000000E+002                6
 RTBSE| Simulation step         Convergence     Electron number  ETRS Iterations
 RTBSE|            2240     0.28949761E-007     0.10000000E+002                6
 RTBSE| Simulation step         Convergence     Electron number  ETRS Iterations
 RTBSE|            2241     0.29437130E-007     0.10000000E+002                6
 RTBSE| Simulation step         Convergence     Electron number  ETRS Iterations
 RTBSE|            2242     0.29939625E-007     0.10000000E+002                6
 RTBSE| Simulation step         Convergence     Electron number  ETRS Iterations
 RTBSE|            2243     0.30969362E-007     0.10000000E+002                6
 RTBSE| Simulation step         Convergence     Electron number  ETRS Iterations
 RTBSE|            2244     0.32425755E-007     0.10000000E+002                6
 RTBSE| Simulation step         Convergence     Electron number  ETRS Iterations
 RTBSE|            2245     0.33620175E-007     0.10000000E+002                6
 RTBSE| Simulation step         Convergence     Electron number  ETRS Iterations
 RTBSE|            2246     0.34365302E-007     0.10000000E+002                6
 RTBSE| Simulation step         Convergence     Electron number  ETRS Iterations
 RTBSE|            2247     0.34478183E-007     0.10000000E+002                6
 RTBSE| Simulation step         Convergence     Electron number  ETRS Iterations
 RTBSE|            2248     0.33789199E-007     0.10000000E+002                6
 RTBSE| Simulation step         Convergence     Electron number  ETRS Iterations
 RTBSE|            2249     0.32142962E-007     0.10000000E+002                6
 RTBSE| Simulation step         Convergence     Electron number  ETRS Iterations
 RTBSE|            2250     0.29537333E-007     0.10000000E+002                6
 RTBSE| Simulation step         Convergence     Electron number  ETRS Iterations
 RTBSE|            2251     0.25965814E-007     0.10000000E+002                6
 RTBSE| Simulation step         Convergence     Electron number  ETRS Iterations
 RTBSE|            2252     0.21547852E-007     0.10000000E+002                6
 RTBSE| Simulation step         Convergence     Electron number  ETRS Iterations
 RTBSE|            2253     0.95647408E-007     0.10000000E+002                5
 RTBSE| Simulation step         Convergence     Electron number  ETRS Iterations
 RTBSE|            2254     0.76765539E-007     0.10000000E+002                5
 RTBSE| Simulation step         Convergence     Electron number  ETRS Iterations
 RTBSE|            2255     0.60976777E-007     0.10000000E+002                5
 RTBSE| Simulation step         Convergence     Electron number  ETRS Iterations
 RTBSE|            2256     0.93040462E-007     0.10000000E+002                5
 RTBSE| Simulation step         Convergence     Electron number  ETRS Iterations
 RTBSE|            2257     0.17524390E-007     0.10000000E+002                6
 RTBSE| Simulation step         Convergence     Electron number  ETRS Iterations
 RTBSE|            2258     0.20853536E-007     0.10000000E+002                6
 RTBSE| Simulation step         Convergence     Electron number  ETRS Iterations
 RTBSE|            2259     0.23603444E-007     0.10000000E+002                6
 RTBSE| Simulation step         Convergence     Electron number  ETRS Iterations
 RTBSE|            2260     0.25799514E-007     0.10000000E+002                6
 RTBSE| Simulation step         Convergence     Electron number  ETRS Iterations
 RTBSE|            2261     0.27536809E-007     0.10000000E+002                6
 RTBSE| Simulation step         Convergence     Electron number  ETRS Iterations
 RTBSE|            2262     0.28924460E-007     0.10000000E+002                6
 RTBSE| Simulation step         Convergence     Electron number  ETRS Iterations
 RTBSE|            2263     0.30130892E-007     0.10000000E+002                6
 RTBSE| Simulation step         Convergence     Electron number  ETRS Iterations
 RTBSE|            2264     0.31252322E-007     0.10000000E+002                6
 RTBSE| Simulation step         Convergence     Electron number  ETRS Iterations
 RTBSE|            2265     0.32348963E-007     0.10000000E+002                6
 RTBSE| Simulation step         Convergence     Electron number  ETRS Iterations
 RTBSE|            2266     0.33449687E-007     0.10000000E+002                6
 RTBSE| Simulation step         Convergence     Electron number  ETRS Iterations
 RTBSE|            2267     0.34480244E-007     0.10000000E+002                6
 RTBSE| Simulation step         Convergence     Electron number  ETRS Iterations
 RTBSE|            2268     0.35744945E-007     0.10000000E+002                6
 RTBSE| Simulation step         Convergence     Electron number  ETRS Iterations
 RTBSE|            2269     0.37687817E-007     0.10000000E+002                6
 RTBSE| Simulation step         Convergence     Electron number  ETRS Iterations
 RTBSE|            2270     0.39241632E-007     0.10000000E+002                6
 RTBSE| Simulation step         Convergence     Electron number  ETRS Iterations
 RTBSE|            2271     0.40159862E-007     0.10000000E+002                6
 RTBSE| Simulation step         Convergence     Electron number  ETRS Iterations
 RTBSE|            2272     0.40267428E-007     0.10000000E+002                6
 RTBSE| Simulation step         Convergence     Electron number  ETRS Iterations
 RTBSE|            2273     0.39372902E-007     0.10000000E+002                6
 RTBSE| Simulation step         Convergence     Electron number  ETRS Iterations
 RTBSE|            2274     0.37423689E-007     0.10000000E+002                6
 RTBSE| Simulation step         Convergence     Electron number  ETRS Iterations
 RTBSE|            2275     0.34382366E-007     0.10000000E+002                6
 RTBSE| Simulation step         Convergence     Electron number  ETRS Iterations
 RTBSE|            2276     0.30329487E-007     0.10000000E+002                6
 RTBSE| Simulation step         Convergence     Electron number  ETRS Iterations
 RTBSE|            2277     0.25424990E-007     0.10000000E+002                6
 RTBSE| Simulation step         Convergence     Electron number  ETRS Iterations
 RTBSE|            2278     0.19887670E-007     0.10000000E+002                6
 RTBSE| Simulation step         Convergence     Electron number  ETRS Iterations
 RTBSE|            2279     0.88441048E-007     0.10000000E+002                5
 RTBSE| Simulation step         Convergence     Electron number  ETRS Iterations
 RTBSE|            2280     0.67692308E-007     0.10000000E+002                5
 RTBSE| Simulation step         Convergence     Electron number  ETRS Iterations
 RTBSE|            2281     0.77913315E-007     0.10000000E+002                5
 RTBSE| Simulation step         Convergence     Electron number  ETRS Iterations
 RTBSE|            2282     0.15649180E-007     0.10000000E+002                6
 RTBSE| Simulation step         Convergence     Electron number  ETRS Iterations
 RTBSE|            2283     0.19044500E-007     0.10000000E+002                6
 RTBSE| Simulation step         Convergence     Electron number  ETRS Iterations
 RTBSE|            2284     0.21743688E-007     0.10000000E+002                6
 RTBSE| Simulation step         Convergence     Electron number  ETRS Iterations
 RTBSE|            2285     0.23742547E-007     0.10000000E+002                6
 RTBSE| Simulation step         Convergence     Electron number  ETRS Iterations
 RTBSE|            2286     0.25154654E-007     0.10000000E+002                6
 RTBSE| Simulation step         Convergence     Electron number  ETRS Iterations
 RTBSE|            2287     0.26114014E-007     0.10000000E+002                6
 RTBSE| Simulation step         Convergence     Electron number  ETRS Iterations
 RTBSE|            2288     0.26772258E-007     0.10000000E+002                6
 RTBSE| Simulation step         Convergence     Electron number  ETRS Iterations
 RTBSE|            2289     0.27291346E-007     0.10000000E+002                6
 RTBSE| Simulation step         Convergence     Electron number  ETRS Iterations
 RTBSE|            2290     0.27800236E-007     0.10000000E+002                6
 RTBSE| Simulation step         Convergence     Electron number  ETRS Iterations
 RTBSE|            2291     0.28409843E-007     0.10000000E+002                6
 RTBSE| Simulation step         Convergence     Electron number  ETRS Iterations
 RTBSE|            2292     0.29053819E-007     0.10000000E+002                6
 RTBSE| Simulation step         Convergence     Electron number  ETRS Iterations
 RTBSE|            2293     0.29737027E-007     0.10000000E+002                6
 RTBSE| Simulation step         Convergence     Electron number  ETRS Iterations
 RTBSE|            2294     0.30536153E-007     0.10000000E+002                6
 RTBSE| Simulation step         Convergence     Electron number  ETRS Iterations
 RTBSE|            2295     0.32189863E-007     0.10000000E+002                6
 RTBSE| Simulation step         Convergence     Electron number  ETRS Iterations
 RTBSE|            2296     0.33591730E-007     0.10000000E+002                6
 RTBSE| Simulation step         Convergence     Electron number  ETRS Iterations
 RTBSE|            2297     0.34560783E-007     0.10000000E+002                6
 RTBSE| Simulation step         Convergence     Electron number  ETRS Iterations
 RTBSE|            2298     0.34878846E-007     0.10000000E+002                6
 RTBSE| Simulation step         Convergence     Electron number  ETRS Iterations
 RTBSE|            2299     0.34352136E-007     0.10000000E+002                6
 RTBSE| Simulation step         Convergence     Electron number  ETRS Iterations
 RTBSE|            2300     0.32878334E-007     0.10000000E+002                6
 RTBSE| Simulation step         Convergence     Electron number  ETRS Iterations
 RTBSE|            2301     0.30382088E-007     0.10000000E+002                6
 RTBSE| Simulation step         Convergence     Electron number  ETRS Iterations
 RTBSE|            2302     0.26900122E-007     0.10000000E+002                6
 RTBSE| Simulation step         Convergence     Electron number  ETRS Iterations
 RTBSE|            2303     0.22550986E-007     0.10000000E+002                6
 RTBSE| Simulation step         Convergence     Electron number  ETRS Iterations
 RTBSE|            2304     0.99514428E-007     0.10000000E+002                5
 RTBSE| Simulation step         Convergence     Electron number  ETRS Iterations
 RTBSE|            2305     0.80507985E-007     0.10000000E+002                5
 RTBSE| Simulation step         Convergence     Electron number  ETRS Iterations
 RTBSE|            2306     0.63383367E-007     0.10000000E+002                5
 RTBSE| Simulation step         Convergence     Electron number  ETRS Iterations
 RTBSE|            2307     0.86850552E-007     0.10000000E+002                5
 RTBSE| Simulation step         Convergence     Electron number  ETRS Iterations
 RTBSE|            2308     0.16824972E-007     0.10000000E+002                6
 RTBSE| Simulation step         Convergence     Electron number  ETRS Iterations
 RTBSE|            2309     0.20213207E-007     0.10000000E+002                6
 RTBSE| Simulation step         Convergence     Electron number  ETRS Iterations
 RTBSE|            2310     0.23018907E-007     0.10000000E+002                6
 RTBSE| Simulation step         Convergence     Electron number  ETRS Iterations
 RTBSE|            2311     0.25284241E-007     0.10000000E+002                6
 RTBSE| Simulation step         Convergence     Electron number  ETRS Iterations
 RTBSE|            2312     0.27102698E-007     0.10000000E+002                6
 RTBSE| Simulation step         Convergence     Electron number  ETRS Iterations
 RTBSE|            2313     0.28597968E-007     0.10000000E+002                6
 RTBSE| Simulation step         Convergence     Electron number  ETRS Iterations
 RTBSE|            2314     0.29913315E-007     0.10000000E+002                6
 RTBSE| Simulation step         Convergence     Electron number  ETRS Iterations
 RTBSE|            2315     0.31148519E-007     0.10000000E+002                6
 RTBSE| Simulation step         Convergence     Electron number  ETRS Iterations
 RTBSE|            2316     0.32358804E-007     0.10000000E+002                6
 RTBSE| Simulation step         Convergence     Electron number  ETRS Iterations
 RTBSE|            2317     0.33587906E-007     0.10000000E+002                6
 RTBSE| Simulation step         Convergence     Electron number  ETRS Iterations
 RTBSE|            2318     0.34739689E-007     0.10000000E+002                6
 RTBSE| Simulation step         Convergence     Electron number  ETRS Iterations
 RTBSE|            2319     0.35865285E-007     0.10000000E+002                6
 RTBSE| Simulation step         Convergence     Electron number  ETRS Iterations
 RTBSE|            2320     0.37891635E-007     0.10000000E+002                6
 RTBSE| Simulation step         Convergence     Electron number  ETRS Iterations
 RTBSE|            2321     0.39499317E-007     0.10000000E+002                6
 RTBSE| Simulation step         Convergence     Electron number  ETRS Iterations
 RTBSE|            2322     0.40487654E-007     0.10000000E+002                6
 RTBSE| Simulation step         Convergence     Electron number  ETRS Iterations
 RTBSE|            2323     0.40637900E-007     0.10000000E+002                6
 RTBSE| Simulation step         Convergence     Electron number  ETRS Iterations
 RTBSE|            2324     0.39790015E-007     0.10000000E+002                6
 RTBSE| Simulation step         Convergence     Electron number  ETRS Iterations
 RTBSE|            2325     0.37846333E-007     0.10000000E+002                6
 RTBSE| Simulation step         Convergence     Electron number  ETRS Iterations
 RTBSE|            2326     0.34809450E-007     0.10000000E+002                6
 RTBSE| Simulation step         Convergence     Electron number  ETRS Iterations
 RTBSE|            2327     0.30753211E-007     0.10000000E+002                6
 RTBSE| Simulation step         Convergence     Electron number  ETRS Iterations
 RTBSE|            2328     0.25865377E-007     0.10000000E+002                6
 RTBSE| Simulation step         Convergence     Electron number  ETRS Iterations
 RTBSE|            2329     0.20351832E-007     0.10000000E+002                6
 RTBSE| Simulation step         Convergence     Electron number  ETRS Iterations
 RTBSE|            2330     0.89917585E-007     0.10000000E+002                5
 RTBSE| Simulation step         Convergence     Electron number  ETRS Iterations
 RTBSE|            2331     0.68836120E-007     0.10000000E+002                5
 RTBSE| Simulation step         Convergence     Electron number  ETRS Iterations
 RTBSE|            2332     0.72435352E-007     0.10000000E+002                5
 RTBSE| Simulation step         Convergence     Electron number  ETRS Iterations
 RTBSE|            2333     0.14900544E-007     0.10000000E+002                6
 RTBSE| Simulation step         Convergence     Electron number  ETRS Iterations
 RTBSE|            2334     0.18233240E-007     0.10000000E+002                6
 RTBSE| Simulation step         Convergence     Electron number  ETRS Iterations
 RTBSE|            2335     0.20883027E-007     0.10000000E+002                6
 RTBSE| Simulation step         Convergence     Electron number  ETRS Iterations
 RTBSE|            2336     0.22881390E-007     0.10000000E+002                6
 RTBSE| Simulation step         Convergence     Electron number  ETRS Iterations
 RTBSE|            2337     0.24285279E-007     0.10000000E+002                6
 RTBSE| Simulation step         Convergence     Electron number  ETRS Iterations
 RTBSE|            2338     0.25303549E-007     0.10000000E+002                6
 RTBSE| Simulation step         Convergence     Electron number  ETRS Iterations
 RTBSE|            2339     0.26079485E-007     0.10000000E+002                6
 RTBSE| Simulation step         Convergence     Electron number  ETRS Iterations
 RTBSE|            2340     0.26760385E-007     0.10000000E+002                6
 RTBSE| Simulation step         Convergence     Electron number  ETRS Iterations
 RTBSE|            2341     0.27477679E-007     0.10000000E+002                6
 RTBSE| Simulation step         Convergence     Electron number  ETRS Iterations
 RTBSE|            2342     0.28245864E-007     0.10000000E+002                6
 RTBSE| Simulation step         Convergence     Electron number  ETRS Iterations
 RTBSE|            2343     0.29130110E-007     0.10000000E+002                6
 RTBSE| Simulation step         Convergence     Electron number  ETRS Iterations
 RTBSE|            2344     0.30006380E-007     0.10000000E+002                6
 RTBSE| Simulation step         Convergence     Electron number  ETRS Iterations
 RTBSE|            2345     0.30818033E-007     0.10000000E+002                6
 RTBSE| Simulation step         Convergence     Electron number  ETRS Iterations
 RTBSE|            2346     0.32444984E-007     0.10000000E+002                6
 RTBSE| Simulation step         Convergence     Electron number  ETRS Iterations
 RTBSE|            2347     0.34048819E-007     0.10000000E+002                6
 RTBSE| Simulation step         Convergence     Electron number  ETRS Iterations
 RTBSE|            2348     0.35183989E-007     0.10000000E+002                6
 RTBSE| Simulation step         Convergence     Electron number  ETRS Iterations
 RTBSE|            2349     0.35628225E-007     0.10000000E+002                6
 RTBSE| Simulation step         Convergence     Electron number  ETRS Iterations
 RTBSE|            2350     0.35196141E-007     0.10000000E+002                6
 RTBSE| Simulation step         Convergence     Electron number  ETRS Iterations
 RTBSE|            2351     0.33787407E-007     0.10000000E+002                6
 RTBSE| Simulation step         Convergence     Electron number  ETRS Iterations
 RTBSE|            2352     0.31302909E-007     0.10000000E+002                6
 RTBSE| Simulation step         Convergence     Electron number  ETRS Iterations
 RTBSE|            2353     0.27781780E-007     0.10000000E+002                6
 RTBSE| Simulation step         Convergence     Electron number  ETRS Iterations
 RTBSE|            2354     0.23376197E-007     0.10000000E+002                6
 RTBSE| Simulation step         Convergence     Electron number  ETRS Iterations
 RTBSE|            2355     0.18279698E-007     0.10000000E+002                6
 RTBSE| Simulation step         Convergence     Electron number  ETRS Iterations
 RTBSE|            2356     0.83281052E-007     0.10000000E+002                5
 RTBSE| Simulation step         Convergence     Electron number  ETRS Iterations
 RTBSE|            2357     0.65194210E-007     0.10000000E+002                5
 RTBSE| Simulation step         Convergence     Electron number  ETRS Iterations
 RTBSE|            2358     0.83284979E-007     0.10000000E+002                5
 RTBSE| Simulation step         Convergence     Electron number  ETRS Iterations
 RTBSE|            2359     0.16416721E-007     0.10000000E+002                6
 RTBSE| Simulation step         Convergence     Electron number  ETRS Iterations
 RTBSE|            2360     0.19842311E-007     0.10000000E+002                6
 RTBSE| Simulation step         Convergence     Electron number  ETRS Iterations
 RTBSE|            2361     0.22667749E-007     0.10000000E+002                6
 RTBSE| Simulation step         Convergence     Electron number  ETRS Iterations
 RTBSE|            2362     0.24980142E-007     0.10000000E+002                6
 RTBSE| Simulation step         Convergence     Electron number  ETRS Iterations
 RTBSE|            2363     0.26822330E-007     0.10000000E+002                6
 RTBSE| Simulation step         Convergence     Electron number  ETRS Iterations
 RTBSE|            2364     0.28360565E-007     0.10000000E+002                6
 RTBSE| Simulation step         Convergence     Electron number  ETRS Iterations
 RTBSE|            2365     0.29725278E-007     0.10000000E+002                6
 RTBSE| Simulation step         Convergence     Electron number  ETRS Iterations
 RTBSE|            2366     0.31019265E-007     0.10000000E+002                6
 RTBSE| Simulation step         Convergence     Electron number  ETRS Iterations
 RTBSE|            2367     0.32318419E-007     0.10000000E+002                6
 RTBSE| Simulation step         Convergence     Electron number  ETRS Iterations
 RTBSE|            2368     0.33622593E-007     0.10000000E+002                6
 RTBSE| Simulation step         Convergence     Electron number  ETRS Iterations
 RTBSE|            2369     0.34808264E-007     0.10000000E+002                6
 RTBSE| Simulation step         Convergence     Electron number  ETRS Iterations
 RTBSE|            2370     0.35817241E-007     0.10000000E+002                6
 RTBSE| Simulation step         Convergence     Electron number  ETRS Iterations
 RTBSE|            2371     0.37910292E-007     0.10000000E+002                6
 RTBSE| Simulation step         Convergence     Electron number  ETRS Iterations
 RTBSE|            2372     0.39598822E-007     0.10000000E+002                6
 RTBSE| Simulation step         Convergence     Electron number  ETRS Iterations
 RTBSE|            2373     0.40663178E-007     0.10000000E+002                6
 RTBSE| Simulation step         Convergence     Electron number  ETRS Iterations
 RTBSE|            2374     0.40861357E-007     0.10000000E+002                6
 RTBSE| Simulation step         Convergence     Electron number  ETRS Iterations
 RTBSE|            2375     0.40050822E-007     0.10000000E+002                6
 RTBSE| Simulation step         Convergence     Electron number  ETRS Iterations
 RTBSE|            2376     0.38143737E-007     0.10000000E+002                6
 RTBSE| Simulation step         Convergence     Electron number  ETRS Iterations
 RTBSE|            2377     0.35131293E-007     0.10000000E+002                6
 RTBSE| Simulation step         Convergence     Electron number  ETRS Iterations
 RTBSE|            2378     0.31127699E-007     0.10000000E+002                6
 RTBSE| Simulation step         Convergence     Electron number  ETRS Iterations
 RTBSE|            2379     0.26273192E-007     0.10000000E+002                6
 RTBSE| Simulation step         Convergence     Electron number  ETRS Iterations
 RTBSE|            2380     0.20803344E-007     0.10000000E+002                6
 RTBSE| Simulation step         Convergence     Electron number  ETRS Iterations
 RTBSE|            2381     0.91442302E-007     0.10000000E+002                5
 RTBSE| Simulation step         Convergence     Electron number  ETRS Iterations
 RTBSE|            2382     0.70152651E-007     0.10000000E+002                5
 RTBSE| Simulation step         Convergence     Electron number  ETRS Iterations
 RTBSE|            2383     0.67172522E-007     0.10000000E+002                5
 RTBSE| Simulation step         Convergence     Electron number  ETRS Iterations
 RTBSE|            2384     0.14204012E-007     0.10000000E+002                6
 RTBSE| Simulation step         Convergence     Electron number  ETRS Iterations
 RTBSE|            2385     0.17483592E-007     0.10000000E+002                6
 RTBSE| Simulation step         Convergence     Electron number  ETRS Iterations
 RTBSE|            2386     0.20089496E-007     0.10000000E+002                6
 RTBSE| Simulation step         Convergence     Electron number  ETRS Iterations
 RTBSE|            2387     0.22091498E-007     0.10000000E+002                6
 RTBSE| Simulation step         Convergence     Electron number  ETRS Iterations
 RTBSE|            2388     0.23562508E-007     0.10000000E+002                6
 RTBSE| Simulation step         Convergence     Electron number  ETRS Iterations
 RTBSE|            2389     0.24638181E-007     0.10000000E+002                6
 RTBSE| Simulation step         Convergence     Electron number  ETRS Iterations
 RTBSE|            2390     0.25519750E-007     0.10000000E+002                6
 RTBSE| Simulation step         Convergence     Electron number  ETRS Iterations
 RTBSE|            2391     0.26315944E-007     0.10000000E+002                6
 RTBSE| Simulation step         Convergence     Electron number  ETRS Iterations
 RTBSE|            2392     0.27154129E-007     0.10000000E+002                6
 RTBSE| Simulation step         Convergence     Electron number  ETRS Iterations
 RTBSE|            2393     0.28107007E-007     0.10000000E+002                6
 RTBSE| Simulation step         Convergence     Electron number  ETRS Iterations
 RTBSE|            2394     0.29173476E-007     0.10000000E+002                6
 RTBSE| Simulation step         Convergence     Electron number  ETRS Iterations
 RTBSE|            2395     0.30222789E-007     0.10000000E+002                6
 RTBSE| Simulation step         Convergence     Electron number  ETRS Iterations
 RTBSE|            2396     0.31167158E-007     0.10000000E+002                6
 RTBSE| Simulation step         Convergence     Electron number  ETRS Iterations
 RTBSE|            2397     0.32619685E-007     0.10000000E+002                6
 RTBSE| Simulation step         Convergence     Electron number  ETRS Iterations
 RTBSE|            2398     0.34389527E-007     0.10000000E+002                6
 RTBSE| Simulation step         Convergence     Electron number  ETRS Iterations
 RTBSE|            2399     0.35626491E-007     0.10000000E+002                6
 RTBSE| Simulation step         Convergence     Electron number  ETRS Iterations
 RTBSE|            2400     0.36165874E-007     0.10000000E+002                6
 RTBSE| Simulation step         Convergence     Electron number  ETRS Iterations
 RTBSE|            2401     0.35779753E-007     0.10000000E+002                6
 RTBSE| Simulation step         Convergence     Electron number  ETRS Iterations
 RTBSE|            2402     0.34372823E-007     0.10000000E+002                6
 RTBSE| Simulation step         Convergence     Electron number  ETRS Iterations
 RTBSE|            2403     0.31884584E-007     0.10000000E+002                6
 RTBSE| Simulation step         Convergence     Electron number  ETRS Iterations
 RTBSE|            2404     0.28363346E-007     0.10000000E+002                6
 RTBSE| Simulation step         Convergence     Electron number  ETRS Iterations
 RTBSE|            2405     0.23942599E-007     0.10000000E+002                6
 RTBSE| Simulation step         Convergence     Electron number  ETRS Iterations
 RTBSE|            2406     0.18810936E-007     0.10000000E+002                6
 RTBSE| Simulation step         Convergence     Electron number  ETRS Iterations
 RTBSE|            2407     0.85070441E-007     0.10000000E+002                5
 RTBSE| Simulation step         Convergence     Electron number  ETRS Iterations
 RTBSE|            2408     0.66293866E-007     0.10000000E+002                5
 RTBSE| Simulation step         Convergence     Electron number  ETRS Iterations
 RTBSE|            2409     0.79683785E-007     0.10000000E+002                5
 RTBSE| Simulation step         Convergence     Electron number  ETRS Iterations
 RTBSE|            2410     0.15973892E-007     0.10000000E+002                6
 RTBSE| Simulation step         Convergence     Electron number  ETRS Iterations
 RTBSE|            2411     0.19348884E-007     0.10000000E+002                6
 RTBSE| Simulation step         Convergence     Electron number  ETRS Iterations
 RTBSE|            2412     0.22145453E-007     0.10000000E+002                6
 RTBSE| Simulation step         Convergence     Electron number  ETRS Iterations
 RTBSE|            2413     0.24440653E-007     0.10000000E+002                6
 RTBSE| Simulation step         Convergence     Electron number  ETRS Iterations
 RTBSE|            2414     0.26299889E-007     0.10000000E+002                6
 RTBSE| Simulation step         Convergence     Electron number  ETRS Iterations
 RTBSE|            2415     0.27847255E-007     0.10000000E+002                6
 RTBSE| Simulation step         Convergence     Electron number  ETRS Iterations
 RTBSE|            2416     0.29246582E-007     0.10000000E+002                6
 RTBSE| Simulation step         Convergence     Electron number  ETRS Iterations
 RTBSE|            2417     0.30596152E-007     0.10000000E+002                6
 RTBSE| Simulation step         Convergence     Electron number  ETRS Iterations
 RTBSE|            2418     0.31953502E-007     0.10000000E+002                6
 RTBSE| Simulation step         Convergence     Electron number  ETRS Iterations
 RTBSE|            2419     0.33339315E-007     0.10000000E+002                6
 RTBSE| Simulation step         Convergence     Electron number  ETRS Iterations
 RTBSE|            2420     0.34661751E-007     0.10000000E+002                6
 RTBSE| Simulation step         Convergence     Electron number  ETRS Iterations
 RTBSE|            2421     0.35786687E-007     0.10000000E+002                6
 RTBSE| Simulation step         Convergence     Electron number  ETRS Iterations
 RTBSE|            2422     0.37684724E-007     0.10000000E+002                6
 RTBSE| Simulation step         Convergence     Electron number  ETRS Iterations
 RTBSE|            2423     0.39479830E-007     0.10000000E+002                6
 RTBSE| Simulation step         Convergence     Electron number  ETRS Iterations
 RTBSE|            2424     0.40645067E-007     0.10000000E+002                6
 RTBSE| Simulation step         Convergence     Electron number  ETRS Iterations
 RTBSE|            2425     0.40958307E-007     0.10000000E+002                6
 RTBSE| Simulation step         Convergence     Electron number  ETRS Iterations
 RTBSE|            2426     0.40266929E-007     0.10000000E+002                6
 RTBSE| Simulation step         Convergence     Electron number  ETRS Iterations
 RTBSE|            2427     0.38465180E-007     0.10000000E+002                6
 RTBSE| Simulation step         Convergence     Electron number  ETRS Iterations
 RTBSE|            2428     0.35549249E-007     0.10000000E+002                6
 RTBSE| Simulation step         Convergence     Electron number  ETRS Iterations
 RTBSE|            2429     0.31611485E-007     0.10000000E+002                6
 RTBSE| Simulation step         Convergence     Electron number  ETRS Iterations
 RTBSE|            2430     0.26839089E-007     0.10000000E+002                6
 RTBSE| Simulation step         Convergence     Electron number  ETRS Iterations
 RTBSE|            2431     0.21476724E-007     0.10000000E+002                6
 RTBSE| Simulation step         Convergence     Electron number  ETRS Iterations
 RTBSE|            2432     0.94013864E-007     0.10000000E+002                5
 RTBSE| Simulation step         Convergence     Electron number  ETRS Iterations
 RTBSE|            2433     0.72823763E-007     0.10000000E+002                5
 RTBSE| Simulation step         Convergence     Electron number  ETRS Iterations
 RTBSE|            2434     0.60037040E-007     0.10000000E+002                5
 RTBSE| Simulation step         Convergence     Electron number  ETRS Iterations
 RTBSE|            2435     0.93894849E-007     0.10000000E+002                5
 RTBSE| Simulation step         Convergence     Electron number  ETRS Iterations
 RTBSE|            2436     0.16560318E-007     0.10000000E+002                6
 RTBSE| Simulation step         Convergence     Electron number  ETRS Iterations
 RTBSE|            2437     0.19191411E-007     0.10000000E+002                6
 RTBSE| Simulation step         Convergence     Electron number  ETRS Iterations
 RTBSE|            2438     0.21237355E-007     0.10000000E+002                6
 RTBSE| Simulation step         Convergence     Electron number  ETRS Iterations
 RTBSE|            2439     0.22786910E-007     0.10000000E+002                6
 RTBSE| Simulation step         Convergence     Electron number  ETRS Iterations
 RTBSE|            2440     0.23992989E-007     0.10000000E+002                6
 RTBSE| Simulation step         Convergence     Electron number  ETRS Iterations
 RTBSE|            2441     0.24994902E-007     0.10000000E+002                6
 RTBSE| Simulation step         Convergence     Electron number  ETRS Iterations
 RTBSE|            2442     0.25967781E-007     0.10000000E+002                6
 RTBSE| Simulation step         Convergence     Electron number  ETRS Iterations
 RTBSE|            2443     0.26990744E-007     0.10000000E+002                6
 RTBSE| Simulation step         Convergence     Electron number  ETRS Iterations
 RTBSE|            2444     0.28103710E-007     0.10000000E+002                6
 RTBSE| Simulation step         Convergence     Electron number  ETRS Iterations
 RTBSE|            2445     0.29310298E-007     0.10000000E+002                6
 RTBSE| Simulation step         Convergence     Electron number  ETRS Iterations
 RTBSE|            2446     0.30532419E-007     0.10000000E+002                6
 RTBSE| Simulation step         Convergence     Electron number  ETRS Iterations
 RTBSE|            2447     0.31595784E-007     0.10000000E+002                6
 RTBSE| Simulation step         Convergence     Electron number  ETRS Iterations
 RTBSE|            2448     0.32866379E-007     0.10000000E+002                6
 RTBSE| Simulation step         Convergence     Electron number  ETRS Iterations
 RTBSE|            2449     0.34731256E-007     0.10000000E+002                6
 RTBSE| Simulation step         Convergence     Electron number  ETRS Iterations
 RTBSE|            2450     0.36061543E-007     0.10000000E+002                6
 RTBSE| Simulation step         Convergence     Electron number  ETRS Iterations
 RTBSE|            2451     0.36634433E-007     0.10000000E+002                6
 RTBSE| Simulation step         Convergence     Electron number  ETRS Iterations
 RTBSE|            2452     0.36275994E-007     0.10000000E+002                6
 RTBSE| Simulation step         Convergence     Electron number  ETRS Iterations
 RTBSE|            2453     0.34887008E-007     0.10000000E+002                6
 RTBSE| Simulation step         Convergence     Electron number  ETRS Iterations
 RTBSE|            2454     0.32413362E-007     0.10000000E+002                6
 RTBSE| Simulation step         Convergence     Electron number  ETRS Iterations
 RTBSE|            2455     0.28883784E-007     0.10000000E+002                6
 RTBSE| Simulation step         Convergence     Electron number  ETRS Iterations
 RTBSE|            2456     0.24450079E-007     0.10000000E+002                6
 RTBSE| Simulation step         Convergence     Electron number  ETRS Iterations
 RTBSE|            2457     0.19333882E-007     0.10000000E+002                6
 RTBSE| Simulation step         Convergence     Electron number  ETRS Iterations
 RTBSE|            2458     0.86868525E-007     0.10000000E+002                5
 RTBSE| Simulation step         Convergence     Electron number  ETRS Iterations
 RTBSE|            2459     0.67595641E-007     0.10000000E+002                5
 RTBSE| Simulation step         Convergence     Electron number  ETRS Iterations
 RTBSE|            2460     0.74770164E-007     0.10000000E+002                5
 RTBSE| Simulation step         Convergence     Electron number  ETRS Iterations
 RTBSE|            2461     0.15324451E-007     0.10000000E+002                6
 RTBSE| Simulation step         Convergence     Electron number  ETRS Iterations
 RTBSE|            2462     0.18665337E-007     0.10000000E+002                6
 RTBSE| Simulation step         Convergence     Electron number  ETRS Iterations
 RTBSE|            2463     0.21448159E-007     0.10000000E+002                6
 RTBSE| Simulation step         Convergence     Electron number  ETRS Iterations
 RTBSE|            2464     0.23729217E-007     0.10000000E+002                6
 RTBSE| Simulation step         Convergence     Electron number  ETRS Iterations
 RTBSE|            2465     0.25622327E-007     0.10000000E+002                6
 RTBSE| Simulation step         Convergence     Electron number  ETRS Iterations
 RTBSE|            2466     0.27246529E-007     0.10000000E+002                6
 RTBSE| Simulation step         Convergence     Electron number  ETRS Iterations
 RTBSE|            2467     0.28746195E-007     0.10000000E+002                6
 RTBSE| Simulation step         Convergence     Electron number  ETRS Iterations
 RTBSE|            2468     0.30198704E-007     0.10000000E+002                6
 RTBSE| Simulation step         Convergence     Electron number  ETRS Iterations
 RTBSE|            2469     0.31736604E-007     0.10000000E+002                6
 RTBSE| Simulation step         Convergence     Electron number  ETRS Iterations
 RTBSE|            2470     0.33272459E-007     0.10000000E+002                6
 RTBSE| Simulation step         Convergence     Electron number  ETRS Iterations
 RTBSE|            2471     0.34761089E-007     0.10000000E+002                6
 RTBSE| Simulation step         Convergence     Electron number  ETRS Iterations
 RTBSE|            2472     0.36037579E-007     0.10000000E+002                6
 RTBSE| Simulation step         Convergence     Electron number  ETRS Iterations
 RTBSE|            2473     0.37728088E-007     0.10000000E+002                6
 RTBSE| Simulation step         Convergence     Electron number  ETRS Iterations
 RTBSE|            2474     0.39706031E-007     0.10000000E+002                6
 RTBSE| Simulation step         Convergence     Electron number  ETRS Iterations
 RTBSE|            2475     0.41023501E-007     0.10000000E+002                6
 RTBSE| Simulation step         Convergence     Electron number  ETRS Iterations
 RTBSE|            2476     0.41456982E-007     0.10000000E+002                6
 RTBSE| Simulation step         Convergence     Electron number  ETRS Iterations
 RTBSE|            2477     0.40847872E-007     0.10000000E+002                6
 RTBSE| Simulation step         Convergence     Electron number  ETRS Iterations
 RTBSE|            2478     0.39115954E-007     0.10000000E+002                6
 RTBSE| Simulation step         Convergence     Electron number  ETRS Iterations
 RTBSE|            2479     0.36250432E-007     0.10000000E+002                6
 RTBSE| Simulation step         Convergence     Electron number  ETRS Iterations
 RTBSE|            2480     0.32354397E-007     0.10000000E+002                6
 RTBSE| Simulation step         Convergence     Electron number  ETRS Iterations
 RTBSE|            2481     0.27594913E-007     0.10000000E+002                6
 RTBSE| Simulation step         Convergence     Electron number  ETRS Iterations
 RTBSE|            2482     0.22220485E-007     0.10000000E+002                6
 RTBSE| Simulation step         Convergence     Electron number  ETRS Iterations
 RTBSE|            2483     0.96830348E-007     0.10000000E+002                5
 RTBSE| Simulation step         Convergence     Electron number  ETRS Iterations
 RTBSE|            2484     0.75497637E-007     0.10000000E+002                5
 RTBSE| Simulation step         Convergence     Electron number  ETRS Iterations
 RTBSE|            2485     0.57960048E-007     0.10000000E+002                5
 RTBSE| Simulation step         Convergence     Electron number  ETRS Iterations
 RTBSE|            2486     0.88795015E-007     0.10000000E+002                5
 RTBSE| Simulation step         Convergence     Electron number  ETRS Iterations
 RTBSE|            2487     0.15955811E-007     0.10000000E+002                6
 RTBSE| Simulation step         Convergence     Electron number  ETRS Iterations
 RTBSE|            2488     0.18603655E-007     0.10000000E+002                6
 RTBSE| Simulation step         Convergence     Electron number  ETRS Iterations
 RTBSE|            2489     0.20693040E-007     0.10000000E+002                6
 RTBSE| Simulation step         Convergence     Electron number  ETRS Iterations
 RTBSE|            2490     0.22302049E-007     0.10000000E+002                6
 RTBSE| Simulation step         Convergence     Electron number  ETRS Iterations
 RTBSE|            2491     0.23590326E-007     0.10000000E+002                6
 RTBSE| Simulation step         Convergence     Electron number  ETRS Iterations
 RTBSE|            2492     0.24691747E-007     0.10000000E+002                6
 RTBSE| Simulation step         Convergence     Electron number  ETRS Iterations
 RTBSE|            2493     0.25761175E-007     0.10000000E+002                6
 RTBSE| Simulation step         Convergence     Electron number  ETRS Iterations
 RTBSE|            2494     0.26896559E-007     0.10000000E+002                6
 RTBSE| Simulation step         Convergence     Electron number  ETRS Iterations
 RTBSE|            2495     0.28146313E-007     0.10000000E+002                6
 RTBSE| Simulation step         Convergence     Electron number  ETRS Iterations
 RTBSE|            2496     0.29470467E-007     0.10000000E+002                6
 RTBSE| Simulation step         Convergence     Electron number  ETRS Iterations
 RTBSE|            2497     0.30773598E-007     0.10000000E+002                6
 RTBSE| Simulation step         Convergence     Electron number  ETRS Iterations
 RTBSE|            2498     0.31909192E-007     0.10000000E+002                6
 RTBSE| Simulation step         Convergence     Electron number  ETRS Iterations
 RTBSE|            2499     0.33047467E-007     0.10000000E+002                6
 RTBSE| Simulation step         Convergence     Electron number  ETRS Iterations
 RTBSE|            2500     0.34964353E-007     0.10000000E+002                6
 RTBSE| Simulation step         Convergence     Electron number  ETRS Iterations
 RTBSE|            2501     0.36333778E-007     0.10000000E+002                6
 RTBSE| Simulation step         Convergence     Electron number  ETRS Iterations
 RTBSE|            2502     0.36945863E-007     0.10000000E+002                6
 RTBSE| Simulation step         Convergence     Electron number  ETRS Iterations
 RTBSE|            2503     0.36601152E-007     0.10000000E+002                6
 RTBSE| Simulation step         Convergence     Electron number  ETRS Iterations
 RTBSE|            2504     0.35205232E-007     0.10000000E+002                6
 RTBSE| Simulation step         Convergence     Electron number  ETRS Iterations
 RTBSE|            2505     0.32707617E-007     0.10000000E+002                6
 RTBSE| Simulation step         Convergence     Electron number  ETRS Iterations
 RTBSE|            2506     0.29191358E-007     0.10000000E+002                6
 RTBSE| Simulation step         Convergence     Electron number  ETRS Iterations
 RTBSE|            2507     0.24781786E-007     0.10000000E+002                6
 RTBSE| Simulation step         Convergence     Electron number  ETRS Iterations
 RTBSE|            2508     0.19694389E-007     0.10000000E+002                6
 RTBSE| Simulation step         Convergence     Electron number  ETRS Iterations
 RTBSE|            2509     0.88020407E-007     0.10000000E+002                5
 RTBSE| Simulation step         Convergence     Electron number  ETRS Iterations
 RTBSE|            2510     0.68390750E-007     0.10000000E+002                5
 RTBSE| Simulation step         Convergence     Electron number  ETRS Iterations
 RTBSE|            2511     0.70444992E-007     0.10000000E+002                5
 RTBSE| Simulation step         Convergence     Electron number  ETRS Iterations
 RTBSE|            2512     0.14719315E-007     0.10000000E+002                6
 RTBSE| Simulation step         Convergence     Electron number  ETRS Iterations
 RTBSE|            2513     0.17988377E-007     0.10000000E+002                6
 RTBSE| Simulation step         Convergence     Electron number  ETRS Iterations
 RTBSE|            2514     0.20752255E-007     0.10000000E+002                6
 RTBSE| Simulation step         Convergence     Electron number  ETRS Iterations
 RTBSE|            2515     0.23041658E-007     0.10000000E+002                6
 RTBSE| Simulation step         Convergence     Electron number  ETRS Iterations
 RTBSE|            2516     0.24953426E-007     0.10000000E+002                6
 RTBSE| Simulation step         Convergence     Electron number  ETRS Iterations
 RTBSE|            2517     0.26618924E-007     0.10000000E+002                6
 RTBSE| Simulation step         Convergence     Electron number  ETRS Iterations
 RTBSE|            2518     0.28195588E-007     0.10000000E+002                6
 RTBSE| Simulation step         Convergence     Electron number  ETRS Iterations
 RTBSE|            2519     0.29792946E-007     0.10000000E+002                6
 RTBSE| Simulation step         Convergence     Electron number  ETRS Iterations
 RTBSE|            2520     0.31432513E-007     0.10000000E+002                6
 RTBSE| Simulation step         Convergence     Electron number  ETRS Iterations
 RTBSE|            2521     0.33126249E-007     0.10000000E+002                6
 RTBSE| Simulation step         Convergence     Electron number  ETRS Iterations
 RTBSE|            2522     0.34755022E-007     0.10000000E+002                6
 RTBSE| Simulation step         Convergence     Electron number  ETRS Iterations
 RTBSE|            2523     0.36166270E-007     0.10000000E+002                6
 RTBSE| Simulation step         Convergence     Electron number  ETRS Iterations
 RTBSE|            2524     0.37694846E-007     0.10000000E+002                6
 RTBSE| Simulation step         Convergence     Electron number  ETRS Iterations
 RTBSE|            2525     0.39816491E-007     0.10000000E+002                6
 RTBSE| Simulation step         Convergence     Electron number  ETRS Iterations
 RTBSE|            2526     0.41259504E-007     0.10000000E+002                6
 RTBSE| Simulation step         Convergence     Electron number  ETRS Iterations
 RTBSE|            2527     0.41798323E-007     0.10000000E+002                6
 RTBSE| Simulation step         Convergence     Electron number  ETRS Iterations
 RTBSE|            2528     0.41281883E-007     0.10000000E+002                6
 RTBSE| Simulation step         Convergence     Electron number  ETRS Iterations
 RTBSE|            2529     0.39618000E-007     0.10000000E+002                6
 RTBSE| Simulation step         Convergence     Electron number  ETRS Iterations
 RTBSE|            2530     0.36798197E-007     0.10000000E+002                6
 RTBSE| Simulation step         Convergence     Electron number  ETRS Iterations
 RTBSE|            2531     0.32924068E-007     0.10000000E+002                6
 RTBSE| Simulation step         Convergence     Electron number  ETRS Iterations
 RTBSE|            2532     0.28168976E-007     0.10000000E+002                6
 RTBSE| Simulation step         Convergence     Electron number  ETRS Iterations
 RTBSE|            2533     0.22799898E-007     0.10000000E+002                6
 RTBSE| Simulation step         Convergence     Electron number  ETRS Iterations
 RTBSE|            2534     0.99063181E-007     0.10000000E+002                5
 RTBSE| Simulation step         Convergence     Electron number  ETRS Iterations
 RTBSE|            2535     0.77643439E-007     0.10000000E+002                5
 RTBSE| Simulation step         Convergence     Electron number  ETRS Iterations
 RTBSE|            2536     0.59196382E-007     0.10000000E+002                5
 RTBSE| Simulation step         Convergence     Electron number  ETRS Iterations
 RTBSE|            2537     0.84184207E-007     0.10000000E+002                5
 RTBSE| Simulation step         Convergence     Electron number  ETRS Iterations
 RTBSE|            2538     0.15368526E-007     0.10000000E+002                6
 RTBSE| Simulation step         Convergence     Electron number  ETRS Iterations
 RTBSE|            2539     0.18028505E-007     0.10000000E+002                6
 RTBSE| Simulation step         Convergence     Electron number  ETRS Iterations
 RTBSE|            2540     0.20129876E-007     0.10000000E+002                6
 RTBSE| Simulation step         Convergence     Electron number  ETRS Iterations
 RTBSE|            2541     0.21772240E-007     0.10000000E+002                6
 RTBSE| Simulation step         Convergence     Electron number  ETRS Iterations
 RTBSE|            2542     0.23096646E-007     0.10000000E+002                6
 RTBSE| Simulation step         Convergence     Electron number  ETRS Iterations
 RTBSE|            2543     0.24268458E-007     0.10000000E+002                6
 RTBSE| Simulation step         Convergence     Electron number  ETRS Iterations
 RTBSE|            2544     0.25399047E-007     0.10000000E+002                6
 RTBSE| Simulation step         Convergence     Electron number  ETRS Iterations
 RTBSE|            2545     0.26595542E-007     0.10000000E+002                6
 RTBSE| Simulation step         Convergence     Electron number  ETRS Iterations
 RTBSE|            2546     0.27946891E-007     0.10000000E+002                6
 RTBSE| Simulation step         Convergence     Electron number  ETRS Iterations
 RTBSE|            2547     0.29349485E-007     0.10000000E+002                6
 RTBSE| Simulation step         Convergence     Electron number  ETRS Iterations
 RTBSE|            2548     0.30754760E-007     0.10000000E+002                6
 RTBSE| Simulation step         Convergence     Electron number  ETRS Iterations
 RTBSE|            2549     0.31976080E-007     0.10000000E+002                6
 RTBSE| Simulation step         Convergence     Electron number  ETRS Iterations
 RTBSE|            2550     0.32944576E-007     0.10000000E+002                6
 RTBSE| Simulation step         Convergence     Electron number  ETRS Iterations
 RTBSE|            2551     0.34917624E-007     0.10000000E+002                6
 RTBSE| Simulation step         Convergence     Electron number  ETRS Iterations
 RTBSE|            2552     0.36344926E-007     0.10000000E+002                6
 RTBSE| Simulation step         Convergence     Electron number  ETRS Iterations
 RTBSE|            2553     0.37013796E-007     0.10000000E+002                6
 RTBSE| Simulation step         Convergence     Electron number  ETRS Iterations
 RTBSE|            2554     0.36718403E-007     0.10000000E+002                6
 RTBSE| Simulation step         Convergence     Electron number  ETRS Iterations
 RTBSE|            2555     0.35358185E-007     0.10000000E+002                6
 RTBSE| Simulation step         Convergence     Electron number  ETRS Iterations
 RTBSE|            2556     0.32920806E-007     0.10000000E+002                6
 RTBSE| Simulation step         Convergence     Electron number  ETRS Iterations
 RTBSE|            2557     0.29460259E-007     0.10000000E+002                6
 RTBSE| Simulation step         Convergence     Electron number  ETRS Iterations
 RTBSE|            2558     0.25118278E-007     0.10000000E+002                6
 RTBSE| Simulation step         Convergence     Electron number  ETRS Iterations
 RTBSE|            2559     0.20127562E-007     0.10000000E+002                6
 RTBSE| Simulation step         Convergence     Electron number  ETRS Iterations
 RTBSE|            2560     0.89551811E-007     0.10000000E+002                5
 RTBSE| Simulation step         Convergence     Electron number  ETRS Iterations
 RTBSE|            2561     0.70093810E-007     0.10000000E+002                5
 RTBSE| Simulation step         Convergence     Electron number  ETRS Iterations
 RTBSE|            2562     0.63548767E-007     0.10000000E+002                5
 RTBSE| Simulation step         Convergence     Electron number  ETRS Iterations
 RTBSE|            2563     0.95204730E-007     0.10000000E+002                5
 RTBSE| Simulation step         Convergence     Electron number  ETRS Iterations
 RTBSE|            2564     0.17004813E-007     0.10000000E+002                6
 RTBSE| Simulation step         Convergence     Electron number  ETRS Iterations
 RTBSE|            2565     0.19740678E-007     0.10000000E+002                6
 RTBSE| Simulation step         Convergence     Electron number  ETRS Iterations
 RTBSE|            2566     0.22050177E-007     0.10000000E+002                6
 RTBSE| Simulation step         Convergence     Electron number  ETRS Iterations
 RTBSE|            2567     0.24030202E-007     0.10000000E+002                6
 RTBSE| Simulation step         Convergence     Electron number  ETRS Iterations
 RTBSE|            2568     0.25811768E-007     0.10000000E+002                6
 RTBSE| Simulation step         Convergence     Electron number  ETRS Iterations
 RTBSE|            2569     0.27543748E-007     0.10000000E+002                6
 RTBSE| Simulation step         Convergence     Electron number  ETRS Iterations
 RTBSE|            2570     0.29326802E-007     0.10000000E+002                6
 RTBSE| Simulation step         Convergence     Electron number  ETRS Iterations
 RTBSE|            2571     0.31190542E-007     0.10000000E+002                6
 RTBSE| Simulation step         Convergence     Electron number  ETRS Iterations
 RTBSE|            2572     0.33078958E-007     0.10000000E+002                6
 RTBSE| Simulation step         Convergence     Electron number  ETRS Iterations
 RTBSE|            2573     0.34912671E-007     0.10000000E+002                6
 RTBSE| Simulation step         Convergence     Electron number  ETRS Iterations
 RTBSE|            2574     0.36513021E-007     0.10000000E+002                6
 RTBSE| Simulation step         Convergence     Electron number  ETRS Iterations
 RTBSE|            2575     0.37883639E-007     0.10000000E+002                6
 RTBSE| Simulation step         Convergence     Electron number  ETRS Iterations
 RTBSE|            2576     0.40175806E-007     0.10000000E+002                6
 RTBSE| Simulation step         Convergence     Electron number  ETRS Iterations
 RTBSE|            2577     0.41761200E-007     0.10000000E+002                6
 RTBSE| Simulation step         Convergence     Electron number  ETRS Iterations
 RTBSE|            2578     0.42412796E-007     0.10000000E+002                6
 RTBSE| Simulation step         Convergence     Electron number  ETRS Iterations
 RTBSE|            2579     0.41941706E-007     0.10000000E+002                6
 RTBSE| Simulation step         Convergence     Electron number  ETRS Iterations
 RTBSE|            2580     0.40286363E-007     0.10000000E+002                6
 RTBSE| Simulation step         Convergence     Electron number  ETRS Iterations
 RTBSE|            2581     0.37458247E-007     0.10000000E+002                6
 RTBSE| Simulation step         Convergence     Electron number  ETRS Iterations
 RTBSE|            2582     0.33556757E-007     0.10000000E+002                6
 RTBSE| Simulation step         Convergence     Electron number  ETRS Iterations
 RTBSE|            2583     0.28782308E-007     0.10000000E+002                6
 RTBSE| Simulation step         Convergence     Electron number  ETRS Iterations
 RTBSE|            2584     0.23382833E-007     0.10000000E+002                6
 RTBSE| Simulation step         Convergence     Electron number  ETRS Iterations
 RTBSE|            2585     0.17661216E-007     0.10000000E+002                6
 RTBSE| Simulation step         Convergence     Electron number  ETRS Iterations
 RTBSE|            2586     0.79498997E-007     0.10000000E+002                5
 RTBSE| Simulation step         Convergence     Electron number  ETRS Iterations
 RTBSE|            2587     0.60288414E-007     0.10000000E+002                5
 RTBSE| Simulation step         Convergence     Electron number  ETRS Iterations
 RTBSE|            2588     0.79544140E-007     0.10000000E+002                5
 RTBSE| Simulation step         Convergence     Electron number  ETRS Iterations
 RTBSE|            2589     0.14774776E-007     0.10000000E+002                6
 RTBSE| Simulation step         Convergence     Electron number  ETRS Iterations
 RTBSE|            2590     0.17416523E-007     0.10000000E+002                6
 RTBSE| Simulation step         Convergence     Electron number  ETRS Iterations
 RTBSE|            2591     0.19504497E-007     0.10000000E+002                6
 RTBSE| Simulation step         Convergence     Electron number  ETRS Iterations
 RTBSE|            2592     0.21155537E-007     0.10000000E+002                6
 RTBSE| Simulation step         Convergence     Electron number  ETRS Iterations
 RTBSE|            2593     0.22500388E-007     0.10000000E+002                6
 RTBSE| Simulation step         Convergence     Electron number  ETRS Iterations
 RTBSE|            2594     0.23719755E-007     0.10000000E+002                6
 RTBSE| Simulation step         Convergence     Electron number  ETRS Iterations
 RTBSE|            2595     0.24950178E-007     0.10000000E+002                6
 RTBSE| Simulation step         Convergence     Electron number  ETRS Iterations
 RTBSE|            2596     0.26281682E-007     0.10000000E+002                6
 RTBSE| Simulation step         Convergence     Electron number  ETRS Iterations
 RTBSE|            2597     0.27730602E-007     0.10000000E+002                6
 RTBSE| Simulation step         Convergence     Electron number  ETRS Iterations
 RTBSE|            2598     0.29247469E-007     0.10000000E+002                6
 RTBSE| Simulation step         Convergence     Electron number  ETRS Iterations
 RTBSE|            2599     0.30763335E-007     0.10000000E+002                6
 RTBSE| Simulation step         Convergence     Electron number  ETRS Iterations
 RTBSE|            2600     0.32085377E-007     0.10000000E+002                6
 RTBSE| Simulation step         Convergence     Electron number  ETRS Iterations
 RTBSE|            2601     0.33066853E-007     0.10000000E+002                6
 RTBSE| Simulation step         Convergence     Electron number  ETRS Iterations
 RTBSE|            2602     0.34926315E-007     0.10000000E+002                6
 RTBSE| Simulation step         Convergence     Electron number  ETRS Iterations
 RTBSE|            2603     0.36443277E-007     0.10000000E+002                6
 RTBSE| Simulation step         Convergence     Electron number  ETRS Iterations
 RTBSE|            2604     0.37186132E-007     0.10000000E+002                6
 RTBSE| Simulation step         Convergence     Electron number  ETRS Iterations
 RTBSE|            2605     0.36980244E-007     0.10000000E+002                6
 RTBSE| Simulation step         Convergence     Electron number  ETRS Iterations
 RTBSE|            2606     0.35715258E-007     0.10000000E+002                6
 RTBSE| Simulation step         Convergence     Electron number  ETRS Iterations
 RTBSE|            2607     0.33370580E-007     0.10000000E+002                6
 RTBSE| Simulation step         Convergence     Electron number  ETRS Iterations
 RTBSE|            2608     0.29988919E-007     0.10000000E+002                6
 RTBSE| Simulation step         Convergence     Electron number  ETRS Iterations
 RTBSE|            2609     0.25755727E-007     0.10000000E+002                6
 RTBSE| Simulation step         Convergence     Electron number  ETRS Iterations
 RTBSE|            2610     0.20862509E-007     0.10000000E+002                6
 RTBSE| Simulation step         Convergence     Electron number  ETRS Iterations
 RTBSE|            2611     0.92312603E-007     0.10000000E+002                5
 RTBSE| Simulation step         Convergence     Electron number  ETRS Iterations
 RTBSE|            2612     0.73153763E-007     0.10000000E+002                5
 RTBSE| Simulation step         Convergence     Electron number  ETRS Iterations
 RTBSE|            2613     0.58095766E-007     0.10000000E+002                5
 RTBSE| Simulation step         Convergence     Electron number  ETRS Iterations
 RTBSE|            2614     0.88822180E-007     0.10000000E+002                5
 RTBSE| Simulation step         Convergence     Electron number  ETRS Iterations
 RTBSE|            2615     0.16249152E-007     0.10000000E+002                6
 RTBSE| Simulation step         Convergence     Electron number  ETRS Iterations
 RTBSE|            2616     0.19015315E-007     0.10000000E+002                6
 RTBSE| Simulation step         Convergence     Electron number  ETRS Iterations
 RTBSE|            2617     0.21409825E-007     0.10000000E+002                6
 RTBSE| Simulation step         Convergence     Electron number  ETRS Iterations
 RTBSE|            2618     0.23488335E-007     0.10000000E+002                6
 RTBSE| Simulation step         Convergence     Electron number  ETRS Iterations
 RTBSE|            2619     0.25402601E-007     0.10000000E+002                6
 RTBSE| Simulation step         Convergence     Electron number  ETRS Iterations
 RTBSE|            2620     0.27284321E-007     0.10000000E+002                6
 RTBSE| Simulation step         Convergence     Electron number  ETRS Iterations
 RTBSE|            2621     0.29205640E-007     0.10000000E+002                6
 RTBSE| Simulation step         Convergence     Electron number  ETRS Iterations
 RTBSE|            2622     0.31235429E-007     0.10000000E+002                6
 RTBSE| Simulation step         Convergence     Electron number  ETRS Iterations
 RTBSE|            2623     0.33264483E-007     0.10000000E+002                6
 RTBSE| Simulation step         Convergence     Electron number  ETRS Iterations
 RTBSE|            2624     0.35261272E-007     0.10000000E+002                6
 RTBSE| Simulation step         Convergence     Electron number  ETRS Iterations
 RTBSE|            2625     0.36956320E-007     0.10000000E+002                6
 RTBSE| Simulation step         Convergence     Electron number  ETRS Iterations
 RTBSE|            2626     0.38200046E-007     0.10000000E+002                6
 RTBSE| Simulation step         Convergence     Electron number  ETRS Iterations
 RTBSE|            2627     0.40586378E-007     0.10000000E+002                6
 RTBSE| Simulation step         Convergence     Electron number  ETRS Iterations
 RTBSE|            2628     0.42217757E-007     0.10000000E+002                6
 RTBSE| Simulation step         Convergence     Electron number  ETRS Iterations
 RTBSE|            2629     0.42897570E-007     0.10000000E+002                6
 RTBSE| Simulation step         Convergence     Electron number  ETRS Iterations
 RTBSE|            2630     0.42402399E-007     0.10000000E+002                6
 RTBSE| Simulation step         Convergence     Electron number  ETRS Iterations
 RTBSE|            2631     0.40718060E-007     0.10000000E+002                6
 RTBSE| Simulation step         Convergence     Electron number  ETRS Iterations
 RTBSE|            2632     0.37835611E-007     0.10000000E+002                6
 RTBSE| Simulation step         Convergence     Electron number  ETRS Iterations
 RTBSE|            2633     0.33881346E-007     0.10000000E+002                6
 RTBSE| Simulation step         Convergence     Electron number  ETRS Iterations
 RTBSE|            2634     0.29074158E-007     0.10000000E+002                6
 RTBSE| Simulation step         Convergence     Electron number  ETRS Iterations
 RTBSE|            2635     0.23636614E-007     0.10000000E+002                6
 RTBSE| Simulation step         Convergence     Electron number  ETRS Iterations
 RTBSE|            2636     0.17909059E-007     0.10000000E+002                6
 RTBSE| Simulation step         Convergence     Electron number  ETRS Iterations
 RTBSE|            2637     0.80283042E-007     0.10000000E+002                5
 RTBSE| Simulation step         Convergence     Electron number  ETRS Iterations
 RTBSE|            2638     0.60686196E-007     0.10000000E+002                5
 RTBSE| Simulation step         Convergence     Electron number  ETRS Iterations
 RTBSE|            2639     0.75706180E-007     0.10000000E+002                5
 RTBSE| Simulation step         Convergence     Electron number  ETRS Iterations
 RTBSE|            2640     0.14210675E-007     0.10000000E+002                6
 RTBSE| Simulation step         Convergence     Electron number  ETRS Iterations
 RTBSE|            2641     0.16766903E-007     0.10000000E+002                6
 RTBSE| Simulation step         Convergence     Electron number  ETRS Iterations
 RTBSE|            2642     0.18805748E-007     0.10000000E+002                6
 RTBSE| Simulation step         Convergence     Electron number  ETRS Iterations
 RTBSE|            2643     0.20447681E-007     0.10000000E+002                6
 RTBSE| Simulation step         Convergence     Electron number  ETRS Iterations
 RTBSE|            2644     0.21817123E-007     0.10000000E+002                6
 RTBSE| Simulation step         Convergence     Electron number  ETRS Iterations
 RTBSE|            2645     0.23108188E-007     0.10000000E+002                6
 RTBSE| Simulation step         Convergence     Electron number  ETRS Iterations
 RTBSE|            2646     0.24410471E-007     0.10000000E+002                6
 RTBSE| Simulation step         Convergence     Electron number  ETRS Iterations
 RTBSE|            2647     0.25830832E-007     0.10000000E+002                6
 RTBSE| Simulation step         Convergence     Electron number  ETRS Iterations
 RTBSE|            2648     0.27375648E-007     0.10000000E+002                6
 RTBSE| Simulation step         Convergence     Electron number  ETRS Iterations
 RTBSE|            2649     0.29014845E-007     0.10000000E+002                6
 RTBSE| Simulation step         Convergence     Electron number  ETRS Iterations
 RTBSE|            2650     0.30669230E-007     0.10000000E+002                6
 RTBSE| Simulation step         Convergence     Electron number  ETRS Iterations
 RTBSE|            2651     0.32114306E-007     0.10000000E+002                6
 RTBSE| Simulation step         Convergence     Electron number  ETRS Iterations
 RTBSE|            2652     0.33210512E-007     0.10000000E+002                6
 RTBSE| Simulation step         Convergence     Electron number  ETRS Iterations
 RTBSE|            2653     0.34849616E-007     0.10000000E+002                6
 RTBSE| Simulation step         Convergence     Electron number  ETRS Iterations
 RTBSE|            2654     0.36465669E-007     0.10000000E+002                6
 RTBSE| Simulation step         Convergence     Electron number  ETRS Iterations
 RTBSE|            2655     0.37305957E-007     0.10000000E+002                6
 RTBSE| Simulation step         Convergence     Electron number  ETRS Iterations
 RTBSE|            2656     0.37188017E-007     0.10000000E+002                6
 RTBSE| Simulation step         Convergence     Electron number  ETRS Iterations
 RTBSE|            2657     0.36020729E-007     0.10000000E+002                6
 RTBSE| Simulation step         Convergence     Electron number  ETRS Iterations
 RTBSE|            2658     0.33741798E-007     0.10000000E+002                6
 RTBSE| Simulation step         Convergence     Electron number  ETRS Iterations
 RTBSE|            2659     0.30450103E-007     0.10000000E+002                6
 RTBSE| Simulation step         Convergence     Electron number  ETRS Iterations
 RTBSE|            2660     0.26294552E-007     0.10000000E+002                6
 RTBSE| Simulation step         Convergence     Electron number  ETRS Iterations
 RTBSE|            2661     0.21481839E-007     0.10000000E+002                6
 RTBSE| Simulation step         Convergence     Electron number  ETRS Iterations
 RTBSE|            2662     0.94636956E-007     0.10000000E+002                5
 RTBSE| Simulation step         Convergence     Electron number  ETRS Iterations
 RTBSE|            2663     0.75835569E-007     0.10000000E+002                5
 RTBSE| Simulation step         Convergence     Electron number  ETRS Iterations
 RTBSE|            2664     0.59736439E-007     0.10000000E+002                5
 RTBSE| Simulation step         Convergence     Electron number  ETRS Iterations
 RTBSE|            2665     0.82528061E-007     0.10000000E+002                5
 RTBSE| Simulation step         Convergence     Electron number  ETRS Iterations
 RTBSE|            2666     0.15483266E-007     0.10000000E+002                6
 RTBSE| Simulation step         Convergence     Electron number  ETRS Iterations
 RTBSE|            2667     0.18294146E-007     0.10000000E+002                6
 RTBSE| Simulation step         Convergence     Electron number  ETRS Iterations
 RTBSE|            2668     0.20708843E-007     0.10000000E+002                6
 RTBSE| Simulation step         Convergence     Electron number  ETRS Iterations
 RTBSE|            2669     0.22914579E-007     0.10000000E+002                6
 RTBSE| Simulation step         Convergence     Electron number  ETRS Iterations
 RTBSE|            2670     0.24939939E-007     0.10000000E+002                6
 RTBSE| Simulation step         Convergence     Electron number  ETRS Iterations
 RTBSE|            2671     0.26955662E-007     0.10000000E+002                6
 RTBSE| Simulation step         Convergence     Electron number  ETRS Iterations
 RTBSE|            2672     0.29035730E-007     0.10000000E+002                6
 RTBSE| Simulation step         Convergence     Electron number  ETRS Iterations
 RTBSE|            2673     0.31172370E-007     0.10000000E+002                6
 RTBSE| Simulation step         Convergence     Electron number  ETRS Iterations
 RTBSE|            2674     0.33349985E-007     0.10000000E+002                6
 RTBSE| Simulation step         Convergence     Electron number  ETRS Iterations
 RTBSE|            2675     0.35392535E-007     0.10000000E+002                6
 RTBSE| Simulation step         Convergence     Electron number  ETRS Iterations
 RTBSE|            2676     0.37157383E-007     0.10000000E+002                6
 RTBSE| Simulation step         Convergence     Electron number  ETRS Iterations
 RTBSE|            2677     0.38442463E-007     0.10000000E+002                6
 RTBSE| Simulation step         Convergence     Electron number  ETRS Iterations
 RTBSE|            2678     0.40740333E-007     0.10000000E+002                6
 RTBSE| Simulation step         Convergence     Electron number  ETRS Iterations
 RTBSE|            2679     0.42370231E-007     0.10000000E+002                6
 RTBSE| Simulation step         Convergence     Electron number  ETRS Iterations
 RTBSE|            2680     0.43000783E-007     0.10000000E+002                6
 RTBSE| Simulation step         Convergence     Electron number  ETRS Iterations
 RTBSE|            2681     0.42489112E-007     0.10000000E+002                6
 RTBSE| Simulation step         Convergence     Electron number  ETRS Iterations
 RTBSE|            2682     0.40778263E-007     0.10000000E+002                6
 RTBSE| Simulation step         Convergence     Electron number  ETRS Iterations
 RTBSE|            2683     0.37879244E-007     0.10000000E+002                6
 RTBSE| Simulation step         Convergence     Electron number  ETRS Iterations
 RTBSE|            2684     0.33937722E-007     0.10000000E+002                6
 RTBSE| Simulation step         Convergence     Electron number  ETRS Iterations
 RTBSE|            2685     0.29153031E-007     0.10000000E+002                6
 RTBSE| Simulation step         Convergence     Electron number  ETRS Iterations
 RTBSE|            2686     0.23786210E-007     0.10000000E+002                6
 RTBSE| Simulation step         Convergence     Electron number  ETRS Iterations
 RTBSE|            2687     0.18152269E-007     0.10000000E+002                6
 RTBSE| Simulation step         Convergence     Electron number  ETRS Iterations
 RTBSE|            2688     0.80976043E-007     0.10000000E+002                5
 RTBSE| Simulation step         Convergence     Electron number  ETRS Iterations
 RTBSE|            2689     0.61150963E-007     0.10000000E+002                5
 RTBSE| Simulation step         Convergence     Electron number  ETRS Iterations
 RTBSE|            2690     0.69196716E-007     0.10000000E+002                5
 RTBSE| Simulation step         Convergence     Electron number  ETRS Iterations
 RTBSE|            2691     0.95999078E-007     0.10000000E+002                5
 RTBSE| Simulation step         Convergence     Electron number  ETRS Iterations
 RTBSE|            2692     0.15750858E-007     0.10000000E+002                6
 RTBSE| Simulation step         Convergence     Electron number  ETRS Iterations
 RTBSE|            2693     0.17753026E-007     0.10000000E+002                6
 RTBSE| Simulation step         Convergence     Electron number  ETRS Iterations
 RTBSE|            2694     0.19400537E-007     0.10000000E+002                6
 RTBSE| Simulation step         Convergence     Electron number  ETRS Iterations
 RTBSE|            2695     0.20829409E-007     0.10000000E+002                6
 RTBSE| Simulation step         Convergence     Electron number  ETRS Iterations
 RTBSE|            2696     0.22192811E-007     0.10000000E+002                6
 RTBSE| Simulation step         Convergence     Electron number  ETRS Iterations
 RTBSE|            2697     0.23609272E-007     0.10000000E+002                6
 RTBSE| Simulation step         Convergence     Electron number  ETRS Iterations
 RTBSE|            2698     0.25213096E-007     0.10000000E+002                6
 RTBSE| Simulation step         Convergence     Electron number  ETRS Iterations
 RTBSE|            2699     0.26968729E-007     0.10000000E+002                6
 RTBSE| Simulation step         Convergence     Electron number  ETRS Iterations
 RTBSE|            2700     0.28821671E-007     0.10000000E+002                6
 RTBSE| Simulation step         Convergence     Electron number  ETRS Iterations
 RTBSE|            2701     0.30666018E-007     0.10000000E+002                6
 RTBSE| Simulation step         Convergence     Electron number  ETRS Iterations
 RTBSE|            2702     0.32308951E-007     0.10000000E+002                6
 RTBSE| Simulation step         Convergence     Electron number  ETRS Iterations
 RTBSE|            2703     0.33581742E-007     0.10000000E+002                6
 RTBSE| Simulation step         Convergence     Electron number  ETRS Iterations
 RTBSE|            2704     0.34999165E-007     0.10000000E+002                6
 RTBSE| Simulation step         Convergence     Electron number  ETRS Iterations
 RTBSE|            2705     0.36801115E-007     0.10000000E+002                6
 RTBSE| Simulation step         Convergence     Electron number  ETRS Iterations
 RTBSE|            2706     0.37778087E-007     0.10000000E+002                6
 RTBSE| Simulation step         Convergence     Electron number  ETRS Iterations
 RTBSE|            2707     0.37767108E-007     0.10000000E+002                6
 RTBSE| Simulation step         Convergence     Electron number  ETRS Iterations
 RTBSE|            2708     0.36681591E-007     0.10000000E+002                6
 RTBSE| Simulation step         Convergence     Electron number  ETRS Iterations
 RTBSE|            2709     0.34472876E-007     0.10000000E+002                6
 RTBSE| Simulation step         Convergence     Electron number  ETRS Iterations
 RTBSE|            2710     0.31237629E-007     0.10000000E+002                6
 RTBSE| Simulation step         Convergence     Electron number  ETRS Iterations
 RTBSE|            2711     0.27103003E-007     0.10000000E+002                6
 RTBSE| Simulation step         Convergence     Electron number  ETRS Iterations
 RTBSE|            2712     0.22310142E-007     0.10000000E+002                6
 RTBSE| Simulation step         Convergence     Electron number  ETRS Iterations
 RTBSE|            2713     0.97617165E-007     0.10000000E+002                5
 RTBSE| Simulation step         Convergence     Electron number  ETRS Iterations
 RTBSE|            2714     0.78893579E-007     0.10000000E+002                5
 RTBSE| Simulation step         Convergence     Electron number  ETRS Iterations
 RTBSE|            2715     0.61788056E-007     0.10000000E+002                5
 RTBSE| Simulation step         Convergence     Electron number  ETRS Iterations
 RTBSE|            2716     0.77223823E-007     0.10000000E+002                5
 RTBSE| Simulation step         Convergence     Electron number  ETRS Iterations
 RTBSE|            2717     0.14894335E-007     0.10000000E+002                6
 RTBSE| Simulation step         Convergence     Electron number  ETRS Iterations
 RTBSE|            2718     0.17745397E-007     0.10000000E+002                6
 RTBSE| Simulation step         Convergence     Electron number  ETRS Iterations
 RTBSE|            2719     0.20263189E-007     0.10000000E+002                6
 RTBSE| Simulation step         Convergence     Electron number  ETRS Iterations
 RTBSE|            2720     0.22523875E-007     0.10000000E+002                6
 RTBSE| Simulation step         Convergence     Electron number  ETRS Iterations
 RTBSE|            2721     0.24639005E-007     0.10000000E+002                6
 RTBSE| Simulation step         Convergence     Electron number  ETRS Iterations
 RTBSE|            2722     0.26753402E-007     0.10000000E+002                6
 RTBSE| Simulation step         Convergence     Electron number  ETRS Iterations
 RTBSE|            2723     0.28927135E-007     0.10000000E+002                6
 RTBSE| Simulation step         Convergence     Electron number  ETRS Iterations
 RTBSE|            2724     0.31137619E-007     0.10000000E+002                6
 RTBSE| Simulation step         Convergence     Electron number  ETRS Iterations
 RTBSE|            2725     0.33380563E-007     0.10000000E+002                6
 RTBSE| Simulation step         Convergence     Electron number  ETRS Iterations
 RTBSE|            2726     0.35517909E-007     0.10000000E+002                6
 RTBSE| Simulation step         Convergence     Electron number  ETRS Iterations
 RTBSE|            2727     0.37329623E-007     0.10000000E+002                6
 RTBSE| Simulation step         Convergence     Electron number  ETRS Iterations
 RTBSE|            2728     0.38607751E-007     0.10000000E+002                6
 RTBSE| Simulation step         Convergence     Electron number  ETRS Iterations
 RTBSE|            2729     0.40745580E-007     0.10000000E+002                6
 RTBSE| Simulation step         Convergence     Electron number  ETRS Iterations
 RTBSE|            2730     0.42397339E-007     0.10000000E+002                6
 RTBSE| Simulation step         Convergence     Electron number  ETRS Iterations
 RTBSE|            2731     0.43048905E-007     0.10000000E+002                6
 RTBSE| Simulation step         Convergence     Electron number  ETRS Iterations
 RTBSE|            2732     0.42549679E-007     0.10000000E+002                6
 RTBSE| Simulation step         Convergence     Electron number  ETRS Iterations
 RTBSE|            2733     0.40851452E-007     0.10000000E+002                6
 RTBSE| Simulation step         Convergence     Electron number  ETRS Iterations
 RTBSE|            2734     0.37979083E-007     0.10000000E+002                6
 RTBSE| Simulation step         Convergence     Electron number  ETRS Iterations
 RTBSE|            2735     0.34084206E-007     0.10000000E+002                6
 RTBSE| Simulation step         Convergence     Electron number  ETRS Iterations
 RTBSE|            2736     0.29383124E-007     0.10000000E+002                6
 RTBSE| Simulation step         Convergence     Electron number  ETRS Iterations
 RTBSE|            2737     0.24140854E-007     0.10000000E+002                6
 RTBSE| Simulation step         Convergence     Electron number  ETRS Iterations
 RTBSE|            2738     0.18636501E-007     0.10000000E+002                6
 RTBSE| Simulation step         Convergence     Electron number  ETRS Iterations
 RTBSE|            2739     0.82695229E-007     0.10000000E+002                5
 RTBSE| Simulation step         Convergence     Electron number  ETRS Iterations
 RTBSE|            2740     0.63326238E-007     0.10000000E+002                5
 RTBSE| Simulation step         Convergence     Electron number  ETRS Iterations
 RTBSE|            2741     0.61698115E-007     0.10000000E+002                5
 RTBSE| Simulation step         Convergence     Electron number  ETRS Iterations
 RTBSE|            2742     0.88035075E-007     0.10000000E+002                5
 RTBSE| Simulation step         Convergence     Electron number  ETRS Iterations
 RTBSE|            2743     0.14748732E-007     0.10000000E+002                6
 RTBSE| Simulation step         Convergence     Electron number  ETRS Iterations
 RTBSE|            2744     0.16765876E-007     0.10000000E+002                6
 RTBSE| Simulation step         Convergence     Electron number  ETRS Iterations
 RTBSE|            2745     0.18479154E-007     0.10000000E+002                6
 RTBSE| Simulation step         Convergence     Electron number  ETRS Iterations
 RTBSE|            2746     0.20021226E-007     0.10000000E+002                6
 RTBSE| Simulation step         Convergence     Electron number  ETRS Iterations
 RTBSE|            2747     0.21549365E-007     0.10000000E+002                6
 RTBSE| Simulation step         Convergence     Electron number  ETRS Iterations
 RTBSE|            2748     0.23193017E-007     0.10000000E+002                6
 RTBSE| Simulation step         Convergence     Electron number  ETRS Iterations
 RTBSE|            2749     0.24960386E-007     0.10000000E+002                6
 RTBSE| Simulation step         Convergence     Electron number  ETRS Iterations
 RTBSE|            2750     0.26928547E-007     0.10000000E+002                6
 RTBSE| Simulation step         Convergence     Electron number  ETRS Iterations
 RTBSE|            2751     0.28995481E-007     0.10000000E+002                6
 RTBSE| Simulation step         Convergence     Electron number  ETRS Iterations
 RTBSE|            2752     0.30998172E-007     0.10000000E+002                6
 RTBSE| Simulation step         Convergence     Electron number  ETRS Iterations
 RTBSE|            2753     0.32808417E-007     0.10000000E+002                6
 RTBSE| Simulation step         Convergence     Electron number  ETRS Iterations
 RTBSE|            2754     0.34160415E-007     0.10000000E+002                6
 RTBSE| Simulation step         Convergence     Electron number  ETRS Iterations
 RTBSE|            2755     0.35406918E-007     0.10000000E+002                6
 RTBSE| Simulation step         Convergence     Electron number  ETRS Iterations
 RTBSE|            2756     0.37277280E-007     0.10000000E+002                6
 RTBSE| Simulation step         Convergence     Electron number  ETRS Iterations
 RTBSE|            2757     0.38299677E-007     0.10000000E+002                6
 RTBSE| Simulation step         Convergence     Electron number  ETRS Iterations
 RTBSE|            2758     0.38315628E-007     0.10000000E+002                6
 RTBSE| Simulation step         Convergence     Electron number  ETRS Iterations
 RTBSE|            2759     0.37201878E-007     0.10000000E+002                6
 RTBSE| Simulation step         Convergence     Electron number  ETRS Iterations
 RTBSE|            2760     0.34967543E-007     0.10000000E+002                6
 RTBSE| Simulation step         Convergence     Electron number  ETRS Iterations
 RTBSE|            2761     0.31688877E-007     0.10000000E+002                6
 RTBSE| Simulation step         Convergence     Electron number  ETRS Iterations
 RTBSE|            2762     0.27531856E-007     0.10000000E+002                6
 RTBSE| Simulation step         Convergence     Electron number  ETRS Iterations
 RTBSE|            2763     0.22729797E-007     0.10000000E+002                6
 RTBSE| Simulation step         Convergence     Electron number  ETRS Iterations
 RTBSE|            2764     0.99152670E-007     0.10000000E+002                5
 RTBSE| Simulation step         Convergence     Electron number  ETRS Iterations
 RTBSE|            2765     0.80415817E-007     0.10000000E+002                5
 RTBSE| Simulation step         Convergence     Electron number  ETRS Iterations
 RTBSE|            2766     0.62737936E-007     0.10000000E+002                5
 RTBSE| Simulation step         Convergence     Electron number  ETRS Iterations
 RTBSE|            2767     0.73875213E-007     0.10000000E+002                5
 RTBSE| Simulation step         Convergence     Electron number  ETRS Iterations
 RTBSE|            2768     0.14452317E-007     0.10000000E+002                6
 RTBSE| Simulation step         Convergence     Electron number  ETRS Iterations
 RTBSE|            2769     0.17300821E-007     0.10000000E+002                6
 RTBSE| Simulation step         Convergence     Electron number  ETRS Iterations
 RTBSE|            2770     0.19808148E-007     0.10000000E+002                6
 RTBSE| Simulation step         Convergence     Electron number  ETRS Iterations
 RTBSE|            2771     0.22077121E-007     0.10000000E+002                6
 RTBSE| Simulation step         Convergence     Electron number  ETRS Iterations
 RTBSE|            2772     0.24204537E-007     0.10000000E+002                6
 RTBSE| Simulation step         Convergence     Electron number  ETRS Iterations
 RTBSE|            2773     0.26376225E-007     0.10000000E+002                6
 RTBSE| Simulation step         Convergence     Electron number  ETRS Iterations
 RTBSE|            2774     0.28607623E-007     0.10000000E+002                6
 RTBSE| Simulation step         Convergence     Electron number  ETRS Iterations
 RTBSE|            2775     0.30860116E-007     0.10000000E+002                6
 RTBSE| Simulation step         Convergence     Electron number  ETRS Iterations
 RTBSE|            2776     0.33150631E-007     0.10000000E+002                6
 RTBSE| Simulation step         Convergence     Electron number  ETRS Iterations
 RTBSE|            2777     0.35335267E-007     0.10000000E+002                6
 RTBSE| Simulation step         Convergence     Electron number  ETRS Iterations
 RTBSE|            2778     0.37199448E-007     0.10000000E+002                6
 RTBSE| Simulation step         Convergence     Electron number  ETRS Iterations
 RTBSE|            2779     0.38543131E-007     0.10000000E+002                6
 RTBSE| Simulation step         Convergence     Electron number  ETRS Iterations
 RTBSE|            2780     0.40516292E-007     0.10000000E+002                6
 RTBSE| Simulation step         Convergence     Electron number  ETRS Iterations
 RTBSE|            2781     0.42191263E-007     0.10000000E+002                6
 RTBSE| Simulation step         Convergence     Electron number  ETRS Iterations
 RTBSE|            2782     0.42869639E-007     0.10000000E+002                6
 RTBSE| Simulation step         Convergence     Electron number  ETRS Iterations
 RTBSE|            2783     0.42411901E-007     0.10000000E+002                6
 RTBSE| Simulation step         Convergence     Electron number  ETRS Iterations
 RTBSE|            2784     0.40778752E-007     0.10000000E+002                6
 RTBSE| Simulation step         Convergence     Electron number  ETRS Iterations
 RTBSE|            2785     0.38009010E-007     0.10000000E+002                6
 RTBSE| Simulation step         Convergence     Electron number  ETRS Iterations
 RTBSE|            2786     0.34211394E-007     0.10000000E+002                6
 RTBSE| Simulation step         Convergence     Electron number  ETRS Iterations
 RTBSE|            2787     0.29621191E-007     0.10000000E+002                6
 RTBSE| Simulation step         Convergence     Electron number  ETRS Iterations
 RTBSE|            2788     0.24503354E-007     0.10000000E+002                6
 RTBSE| Simulation step         Convergence     Electron number  ETRS Iterations
 RTBSE|            2789     0.19155147E-007     0.10000000E+002                6
 RTBSE| Simulation step         Convergence     Electron number  ETRS Iterations
 RTBSE|            2790     0.84575260E-007     0.10000000E+002                5
 RTBSE| Simulation step         Convergence     Electron number  ETRS Iterations
 RTBSE|            2791     0.65875717E-007     0.10000000E+002                5
 RTBSE| Simulation step         Convergence     Electron number  ETRS Iterations
 RTBSE|            2792     0.53835432E-007     0.10000000E+002                5
 RTBSE| Simulation step         Convergence     Electron number  ETRS Iterations
 RTBSE|            2793     0.79835747E-007     0.10000000E+002                5
 RTBSE| Simulation step         Convergence     Electron number  ETRS Iterations
 RTBSE|            2794     0.13726279E-007     0.10000000E+002                6
 RTBSE| Simulation step         Convergence     Electron number  ETRS Iterations
 RTBSE|            2795     0.15784815E-007     0.10000000E+002                6
 RTBSE| Simulation step         Convergence     Electron number  ETRS Iterations
 RTBSE|            2796     0.17604084E-007     0.10000000E+002                6
 RTBSE| Simulation step         Convergence     Electron number  ETRS Iterations
 RTBSE|            2797     0.19261556E-007     0.10000000E+002                6
 RTBSE| Simulation step         Convergence     Electron number  ETRS Iterations
 RTBSE|            2798     0.20969559E-007     0.10000000E+002                6
 RTBSE| Simulation step         Convergence     Electron number  ETRS Iterations
 RTBSE|            2799     0.22783450E-007     0.10000000E+002                6
 RTBSE| Simulation step         Convergence     Electron number  ETRS Iterations
 RTBSE|            2800     0.24761556E-007     0.10000000E+002                6
 RTBSE| Simulation step         Convergence     Electron number  ETRS Iterations
 RTBSE|            2801     0.26915851E-007     0.10000000E+002                6
 RTBSE| Simulation step         Convergence     Electron number  ETRS Iterations
 RTBSE|            2802     0.29140040E-007     0.10000000E+002                6
 RTBSE| Simulation step         Convergence     Electron number  ETRS Iterations
 RTBSE|            2803     0.31288952E-007     0.10000000E+002                6
 RTBSE| Simulation step         Convergence     Electron number  ETRS Iterations
 RTBSE|            2804     0.33160033E-007     0.10000000E+002                6
 RTBSE| Simulation step         Convergence     Electron number  ETRS Iterations
 RTBSE|            2805     0.34568359E-007     0.10000000E+002                6
 RTBSE| Simulation step         Convergence     Electron number  ETRS Iterations
 RTBSE|            2806     0.35684923E-007     0.10000000E+002                6
 RTBSE| Simulation step         Convergence     Electron number  ETRS Iterations
 RTBSE|            2807     0.37584369E-007     0.10000000E+002                6
 RTBSE| Simulation step         Convergence     Electron number  ETRS Iterations
 RTBSE|            2808     0.38597280E-007     0.10000000E+002                6
 RTBSE| Simulation step         Convergence     Electron number  ETRS Iterations
 RTBSE|            2809     0.38565253E-007     0.10000000E+002                6
 RTBSE| Simulation step         Convergence     Electron number  ETRS Iterations
 RTBSE|            2810     0.37416592E-007     0.10000000E+002                6
 RTBSE| Simulation step         Convergence     Electron number  ETRS Iterations
 RTBSE|            2811     0.35149651E-007     0.10000000E+002                6
 RTBSE| Simulation step         Convergence     Electron number  ETRS Iterations
 RTBSE|            2812     0.31859665E-007     0.10000000E+002                6
 RTBSE| Simulation step         Convergence     Electron number  ETRS Iterations
 RTBSE|            2813     0.27710547E-007     0.10000000E+002                6
 RTBSE| Simulation step         Convergence     Electron number  ETRS Iterations
 RTBSE|            2814     0.22907750E-007     0.10000000E+002                6
 RTBSE| Simulation step         Convergence     Electron number  ETRS Iterations
 RTBSE|            2815     0.99577008E-007     0.10000000E+002                5
 RTBSE| Simulation step         Convergence     Electron number  ETRS Iterations
 RTBSE|            2816     0.81049383E-007     0.10000000E+002                5
 RTBSE| Simulation step         Convergence     Electron number  ETRS Iterations
 RTBSE|            2817     0.63080927E-007     0.10000000E+002                5
 RTBSE| Simulation step         Convergence     Electron number  ETRS Iterations
 RTBSE|            2818     0.68884925E-007     0.10000000E+002                5
 RTBSE| Simulation step         Convergence     Electron number  ETRS Iterations
 RTBSE|            2819     0.95736837E-007     0.10000000E+002                5
 RTBSE| Simulation step         Convergence     Electron number  ETRS Iterations
 RTBSE|            2820     0.16489295E-007     0.10000000E+002                6
 RTBSE| Simulation step         Convergence     Electron number  ETRS Iterations
 RTBSE|            2821     0.18948410E-007     0.10000000E+002                6
 RTBSE| Simulation step         Convergence     Electron number  ETRS Iterations
 RTBSE|            2822     0.21197480E-007     0.10000000E+002                6
 RTBSE| Simulation step         Convergence     Electron number  ETRS Iterations
 RTBSE|            2823     0.23365220E-007     0.10000000E+002                6
 RTBSE| Simulation step         Convergence     Electron number  ETRS Iterations
 RTBSE|            2824     0.25573597E-007     0.10000000E+002                6
 RTBSE| Simulation step         Convergence     Electron number  ETRS Iterations
 RTBSE|            2825     0.27869126E-007     0.10000000E+002                6
 RTBSE| Simulation step         Convergence     Electron number  ETRS Iterations
 RTBSE|            2826     0.30282293E-007     0.10000000E+002                6
 RTBSE| Simulation step         Convergence     Electron number  ETRS Iterations
 RTBSE|            2827     0.32691872E-007     0.10000000E+002                6
 RTBSE| Simulation step         Convergence     Electron number  ETRS Iterations
 RTBSE|            2828     0.35021911E-007     0.10000000E+002                6
 RTBSE| Simulation step         Convergence     Electron number  ETRS Iterations
 RTBSE|            2829     0.37012325E-007     0.10000000E+002                6
 RTBSE| Simulation step         Convergence     Electron number  ETRS Iterations
 RTBSE|            2830     0.38514529E-007     0.10000000E+002                6
 RTBSE| Simulation step         Convergence     Electron number  ETRS Iterations
 RTBSE|            2831     0.40249804E-007     0.10000000E+002                6
 RTBSE| Simulation step         Convergence     Electron number  ETRS Iterations
 RTBSE|            2832     0.42063771E-007     0.10000000E+002                6
 RTBSE| Simulation step         Convergence     Electron number  ETRS Iterations
 RTBSE|            2833     0.42905836E-007     0.10000000E+002                6
 RTBSE| Simulation step         Convergence     Electron number  ETRS Iterations
 RTBSE|            2834     0.42590612E-007     0.10000000E+002                6
 RTBSE| Simulation step         Convergence     Electron number  ETRS Iterations
 RTBSE|            2835     0.41096827E-007     0.10000000E+002                6
 RTBSE| Simulation step         Convergence     Electron number  ETRS Iterations
 RTBSE|            2836     0.38452540E-007     0.10000000E+002                6
 RTBSE| Simulation step         Convergence     Electron number  ETRS Iterations
 RTBSE|            2837     0.34794009E-007     0.10000000E+002                6
 RTBSE| Simulation step         Convergence     Electron number  ETRS Iterations
 RTBSE|            2838     0.30340033E-007     0.10000000E+002                6
 RTBSE| Simulation step         Convergence     Electron number  ETRS Iterations
 RTBSE|            2839     0.25343588E-007     0.10000000E+002                6
 RTBSE| Simulation step         Convergence     Electron number  ETRS Iterations
 RTBSE|            2840     0.20107073E-007     0.10000000E+002                6
 RTBSE| Simulation step         Convergence     Electron number  ETRS Iterations
 RTBSE|            2841     0.88026267E-007     0.10000000E+002                5
 RTBSE| Simulation step         Convergence     Electron number  ETRS Iterations
 RTBSE|            2842     0.69640154E-007     0.10000000E+002                5
 RTBSE| Simulation step         Convergence     Electron number  ETRS Iterations
 RTBSE|            2843     0.53822214E-007     0.10000000E+002                5
 RTBSE| Simulation step         Convergence     Electron number  ETRS Iterations
 RTBSE|            2844     0.72091447E-007     0.10000000E+002                5
 RTBSE| Simulation step         Convergence     Electron number  ETRS Iterations
 RTBSE|            2845     0.94128668E-007     0.10000000E+002                5
 RTBSE| Simulation step         Convergence     Electron number  ETRS Iterations
 RTBSE|            2846     0.15027053E-007     0.10000000E+002                6
 RTBSE| Simulation step         Convergence     Electron number  ETRS Iterations
 RTBSE|            2847     0.16973032E-007     0.10000000E+002                6
 RTBSE| Simulation step         Convergence     Electron number  ETRS Iterations
 RTBSE|            2848     0.18821957E-007     0.10000000E+002                6
 RTBSE| Simulation step         Convergence     Electron number  ETRS Iterations
 RTBSE|            2849     0.20694848E-007     0.10000000E+002                6
 RTBSE| Simulation step         Convergence     Electron number  ETRS Iterations
 RTBSE|            2850     0.22648583E-007     0.10000000E+002                6
 RTBSE| Simulation step         Convergence     Electron number  ETRS Iterations
 RTBSE|            2851     0.24806561E-007     0.10000000E+002                6
 RTBSE| Simulation step         Convergence     Electron number  ETRS Iterations
 RTBSE|            2852     0.27066665E-007     0.10000000E+002                6
 RTBSE| Simulation step         Convergence     Electron number  ETRS Iterations
 RTBSE|            2853     0.29388000E-007     0.10000000E+002                6
 RTBSE| Simulation step         Convergence     Electron number  ETRS Iterations
 RTBSE|            2854     0.31613722E-007     0.10000000E+002                6
 RTBSE| Simulation step         Convergence     Electron number  ETRS Iterations
 RTBSE|            2855     0.33512724E-007     0.10000000E+002                6
 RTBSE| Simulation step         Convergence     Electron number  ETRS Iterations
 RTBSE|            2856     0.34935236E-007     0.10000000E+002                6
 RTBSE| Simulation step         Convergence     Electron number  ETRS Iterations
 RTBSE|            2857     0.35899878E-007     0.10000000E+002                6
 RTBSE| Simulation step         Convergence     Electron number  ETRS Iterations
 RTBSE|            2858     0.37766686E-007     0.10000000E+002                6
 RTBSE| Simulation step         Convergence     Electron number  ETRS Iterations
 RTBSE|            2859     0.38749809E-007     0.10000000E+002                6
 RTBSE| Simulation step         Convergence     Electron number  ETRS Iterations
 RTBSE|            2860     0.38692266E-007     0.10000000E+002                6
 RTBSE| Simulation step         Convergence     Electron number  ETRS Iterations
 RTBSE|            2861     0.37493679E-007     0.10000000E+002                6
 RTBSE| Simulation step         Convergence     Electron number  ETRS Iterations
 RTBSE|            2862     0.35193317E-007     0.10000000E+002                6
 RTBSE| Simulation step         Convergence     Electron number  ETRS Iterations
 RTBSE|            2863     0.31894798E-007     0.10000000E+002                6
 RTBSE| Simulation step         Convergence     Electron number  ETRS Iterations
 RTBSE|            2864     0.27768395E-007     0.10000000E+002                6
 RTBSE| Simulation step         Convergence     Electron number  ETRS Iterations
 RTBSE|            2865     0.23069492E-007     0.10000000E+002                6
 RTBSE| Simulation step         Convergence     Electron number  ETRS Iterations
 RTBSE|            2866     0.18046156E-007     0.10000000E+002                6
 RTBSE| Simulation step         Convergence     Electron number  ETRS Iterations
 RTBSE|            2867     0.82115831E-007     0.10000000E+002                5
 RTBSE| Simulation step         Convergence     Electron number  ETRS Iterations
 RTBSE|            2868     0.64199847E-007     0.10000000E+002                5
 RTBSE| Simulation step         Convergence     Electron number  ETRS Iterations
 RTBSE|            2869     0.62646145E-007     0.10000000E+002                5
 RTBSE| Simulation step         Convergence     Electron number  ETRS Iterations
 RTBSE|            2870     0.88867142E-007     0.10000000E+002                5
 RTBSE| Simulation step         Convergence     Electron number  ETRS Iterations
 RTBSE|            2871     0.15568582E-007     0.10000000E+002                6
 RTBSE| Simulation step         Convergence     Electron number  ETRS Iterations
 RTBSE|            2872     0.18010605E-007     0.10000000E+002                6
 RTBSE| Simulation step         Convergence     Electron number  ETRS Iterations
 RTBSE|            2873     0.20310021E-007     0.10000000E+002                6
 RTBSE| Simulation step         Convergence     Electron number  ETRS Iterations
 RTBSE|            2874     0.22582089E-007     0.10000000E+002                6
 RTBSE| Simulation step         Convergence     Electron number  ETRS Iterations
 RTBSE|            2875     0.24910885E-007     0.10000000E+002                6
 RTBSE| Simulation step         Convergence     Electron number  ETRS Iterations
 RTBSE|            2876     0.27365340E-007     0.10000000E+002                6
 RTBSE| Simulation step         Convergence     Electron number  ETRS Iterations
 RTBSE|            2877     0.29939178E-007     0.10000000E+002                6
 RTBSE| Simulation step         Convergence     Electron number  ETRS Iterations
 RTBSE|            2878     0.32556568E-007     0.10000000E+002                6
 RTBSE| Simulation step         Convergence     Electron number  ETRS Iterations
 RTBSE|            2879     0.35041830E-007     0.10000000E+002                6
 RTBSE| Simulation step         Convergence     Electron number  ETRS Iterations
 RTBSE|            2880     0.37215540E-007     0.10000000E+002                6
 RTBSE| Simulation step         Convergence     Electron number  ETRS Iterations
 RTBSE|            2881     0.38821743E-007     0.10000000E+002                6
 RTBSE| Simulation step         Convergence     Electron number  ETRS Iterations
 RTBSE|            2882     0.40398449E-007     0.10000000E+002                6
 RTBSE| Simulation step         Convergence     Electron number  ETRS Iterations
 RTBSE|            2883     0.42346633E-007     0.10000000E+002                6
 RTBSE| Simulation step         Convergence     Electron number  ETRS Iterations
 RTBSE|            2884     0.43264490E-007     0.10000000E+002                6
 RTBSE| Simulation step         Convergence     Electron number  ETRS Iterations
 RTBSE|            2885     0.43009555E-007     0.10000000E+002                6
 RTBSE| Simulation step         Convergence     Electron number  ETRS Iterations
 RTBSE|            2886     0.41558652E-007     0.10000000E+002                6
 RTBSE| Simulation step         Convergence     Electron number  ETRS Iterations
 RTBSE|            2887     0.38947843E-007     0.10000000E+002                6
 RTBSE| Simulation step         Convergence     Electron number  ETRS Iterations
 RTBSE|            2888     0.35316044E-007     0.10000000E+002                6
 RTBSE| Simulation step         Convergence     Electron number  ETRS Iterations
 RTBSE|            2889     0.30874519E-007     0.10000000E+002                6
 RTBSE| Simulation step         Convergence     Electron number  ETRS Iterations
 RTBSE|            2890     0.25909115E-007     0.10000000E+002                6
 RTBSE| Simulation step         Convergence     Electron number  ETRS Iterations
 RTBSE|            2891     0.20673802E-007     0.10000000E+002                6
 RTBSE| Simulation step         Convergence     Electron number  ETRS Iterations
 RTBSE|            2892     0.90091514E-007     0.10000000E+002                5
 RTBSE| Simulation step         Convergence     Electron number  ETRS Iterations
 RTBSE|            2893     0.71918543E-007     0.10000000E+002                5
 RTBSE| Simulation step         Convergence     Electron number  ETRS Iterations
 RTBSE|            2894     0.55432140E-007     0.10000000E+002                5
 RTBSE| Simulation step         Convergence     Electron number  ETRS Iterations
 RTBSE|            2895     0.67089996E-007     0.10000000E+002                5
 RTBSE| Simulation step         Convergence     Electron number  ETRS Iterations
 RTBSE|            2896     0.89397347E-007     0.10000000E+002                5
 RTBSE| Simulation step         Convergence     Electron number  ETRS Iterations
 RTBSE|            2897     0.14496306E-007     0.10000000E+002                6
 RTBSE| Simulation step         Convergence     Electron number  ETRS Iterations
 RTBSE|            2898     0.16491458E-007     0.10000000E+002                6
 RTBSE| Simulation step         Convergence     Electron number  ETRS Iterations
 RTBSE|            2899     0.18397601E-007     0.10000000E+002                6
 RTBSE| Simulation step         Convergence     Electron number  ETRS Iterations
 RTBSE|            2900     0.20360882E-007     0.10000000E+002                6
 RTBSE| Simulation step         Convergence     Electron number  ETRS Iterations
 RTBSE|            2901     0.22421303E-007     0.10000000E+002                6
 RTBSE| Simulation step         Convergence     Electron number  ETRS Iterations
 RTBSE|            2902     0.24672001E-007     0.10000000E+002                6
 RTBSE| Simulation step         Convergence     Electron number  ETRS Iterations
 RTBSE|            2903     0.27023076E-007     0.10000000E+002                6
 RTBSE| Simulation step         Convergence     Electron number  ETRS Iterations
 RTBSE|            2904     0.29385685E-007     0.10000000E+002                6
 RTBSE| Simulation step         Convergence     Electron number  ETRS Iterations
 RTBSE|            2905     0.31644339E-007     0.10000000E+002                6
 RTBSE| Simulation step         Convergence     Electron number  ETRS Iterations
 RTBSE|            2906     0.33563513E-007     0.10000000E+002                6
 RTBSE| Simulation step         Convergence     Electron number  ETRS Iterations
 RTBSE|            2907     0.35003276E-007     0.10000000E+002                6
 RTBSE| Simulation step         Convergence     Electron number  ETRS Iterations
 RTBSE|            2908     0.35794644E-007     0.10000000E+002                6
 RTBSE| Simulation step         Convergence     Electron number  ETRS Iterations
 RTBSE|            2909     0.37636401E-007     0.10000000E+002                6
 RTBSE| Simulation step         Convergence     Electron number  ETRS Iterations
 RTBSE|            2910     0.38585513E-007     0.10000000E+002                6
 RTBSE| Simulation step         Convergence     Electron number  ETRS Iterations
 RTBSE|            2911     0.38496500E-007     0.10000000E+002                6
 RTBSE| Simulation step         Convergence     Electron number  ETRS Iterations
 RTBSE|            2912     0.37303875E-007     0.10000000E+002                6
 RTBSE| Simulation step         Convergence     Electron number  ETRS Iterations
 RTBSE|            2913     0.35051105E-007     0.10000000E+002                6
 RTBSE| Simulation step         Convergence     Electron number  ETRS Iterations
 RTBSE|            2914     0.31820252E-007     0.10000000E+002                6
 RTBSE| Simulation step         Convergence     Electron number  ETRS Iterations
 RTBSE|            2915     0.27808855E-007     0.10000000E+002                6
 RTBSE| Simulation step         Convergence     Electron number  ETRS Iterations
 RTBSE|            2916     0.23245565E-007     0.10000000E+002                6
 RTBSE| Simulation step         Convergence     Electron number  ETRS Iterations
 RTBSE|            2917     0.18386829E-007     0.10000000E+002                6
 RTBSE| Simulation step         Convergence     Electron number  ETRS Iterations
 RTBSE|            2918     0.83390166E-007     0.10000000E+002                5
 RTBSE| Simulation step         Convergence     Electron number  ETRS Iterations
 RTBSE|            2919     0.66258498E-007     0.10000000E+002                5
 RTBSE| Simulation step         Convergence     Electron number  ETRS Iterations
 RTBSE|            2920     0.55347580E-007     0.10000000E+002                5
 RTBSE| Simulation step         Convergence     Electron number  ETRS Iterations
 RTBSE|            2921     0.81105079E-007     0.10000000E+002                5
 RTBSE| Simulation step         Convergence     Electron number  ETRS Iterations
 RTBSE|            2922     0.14581697E-007     0.10000000E+002                6
 RTBSE| Simulation step         Convergence     Electron number  ETRS Iterations
 RTBSE|            2923     0.17044187E-007     0.10000000E+002                6
 RTBSE| Simulation step         Convergence     Electron number  ETRS Iterations
 RTBSE|            2924     0.19402735E-007     0.10000000E+002                6
 RTBSE| Simulation step         Convergence     Electron number  ETRS Iterations
 RTBSE|            2925     0.21773533E-007     0.10000000E+002                6
 RTBSE| Simulation step         Convergence     Electron number  ETRS Iterations
 RTBSE|            2926     0.24227969E-007     0.10000000E+002                6
 RTBSE| Simulation step         Convergence     Electron number  ETRS Iterations
 RTBSE|            2927     0.26853852E-007     0.10000000E+002                6
 RTBSE| Simulation step         Convergence     Electron number  ETRS Iterations
 RTBSE|            2928     0.29618234E-007     0.10000000E+002                6
 RTBSE| Simulation step         Convergence     Electron number  ETRS Iterations
 RTBSE|            2929     0.32382202E-007     0.10000000E+002                6
 RTBSE| Simulation step         Convergence     Electron number  ETRS Iterations
 RTBSE|            2930     0.35023527E-007     0.10000000E+002                6
 RTBSE| Simulation step         Convergence     Electron number  ETRS Iterations
 RTBSE|            2931     0.37311011E-007     0.10000000E+002                6
 RTBSE| Simulation step         Convergence     Electron number  ETRS Iterations
 RTBSE|            2932     0.39044701E-007     0.10000000E+002                6
 RTBSE| Simulation step         Convergence     Electron number  ETRS Iterations
 RTBSE|            2933     0.40474168E-007     0.10000000E+002                6
 RTBSE| Simulation step         Convergence     Electron number  ETRS Iterations
 RTBSE|            2934     0.42511541E-007     0.10000000E+002                6
 RTBSE| Simulation step         Convergence     Electron number  ETRS Iterations
 RTBSE|            2935     0.43502319E-007     0.10000000E+002                6
 RTBSE| Simulation step         Convergence     Electron number  ETRS Iterations
 RTBSE|            2936     0.43292887E-007     0.10000000E+002                6
 RTBSE| Simulation step         Convergence     Electron number  ETRS Iterations
 RTBSE|            2937     0.41847563E-007     0.10000000E+002                6
 RTBSE| Simulation step         Convergence     Electron number  ETRS Iterations
 RTBSE|            2938     0.39244702E-007     0.10000000E+002                6
 RTBSE| Simulation step         Convergence     Electron number  ETRS Iterations
 RTBSE|            2939     0.35623066E-007     0.10000000E+002                6
 RTBSE| Simulation step         Convergence     Electron number  ETRS Iterations
 RTBSE|            2940     0.31208774E-007     0.10000000E+002                6
 RTBSE| Simulation step         Convergence     Electron number  ETRS Iterations
 RTBSE|            2941     0.26271987E-007     0.10000000E+002                6
 RTBSE| Simulation step         Convergence     Electron number  ETRS Iterations
 RTBSE|            2942     0.21102178E-007     0.10000000E+002                6
 RTBSE| Simulation step         Convergence     Electron number  ETRS Iterations
 RTBSE|            2943     0.91379207E-007     0.10000000E+002                5
 RTBSE| Simulation step         Convergence     Electron number  ETRS Iterations
 RTBSE|            2944     0.73415878E-007     0.10000000E+002                5
 RTBSE| Simulation step         Convergence     Electron number  ETRS Iterations
 RTBSE|            2945     0.56502754E-007     0.10000000E+002                5
 RTBSE| Simulation step         Convergence     Electron number  ETRS Iterations
 RTBSE|            2946     0.61227686E-007     0.10000000E+002                5
 RTBSE| Simulation step         Convergence     Electron number  ETRS Iterations
 RTBSE|            2947     0.83208493E-007     0.10000000E+002                5
 RTBSE| Simulation step         Convergence     Electron number  ETRS Iterations
 RTBSE|            2948     0.13725752E-007     0.10000000E+002                6
 RTBSE| Simulation step         Convergence     Electron number  ETRS Iterations
 RTBSE|            2949     0.15749194E-007     0.10000000E+002                6
 RTBSE| Simulation step         Convergence     Electron number  ETRS Iterations
 RTBSE|            2950     0.17706027E-007     0.10000000E+002                6
 RTBSE| Simulation step         Convergence     Electron number  ETRS Iterations
 RTBSE|            2951     0.19712246E-007     0.10000000E+002                6
 RTBSE| Simulation step         Convergence     Electron number  ETRS Iterations
 RTBSE|            2952     0.21874761E-007     0.10000000E+002                6
 RTBSE| Simulation step         Convergence     Electron number  ETRS Iterations
 RTBSE|            2953     0.24209836E-007     0.10000000E+002                6
 RTBSE| Simulation step         Convergence     Electron number  ETRS Iterations
 RTBSE|            2954     0.26625234E-007     0.10000000E+002                6
 RTBSE| Simulation step         Convergence     Electron number  ETRS Iterations
 RTBSE|            2955     0.29114108E-007     0.10000000E+002                6
 RTBSE| Simulation step         Convergence     Electron number  ETRS Iterations
 RTBSE|            2956     0.31448237E-007     0.10000000E+002                6
 RTBSE| Simulation step         Convergence     Electron number  ETRS Iterations
 RTBSE|            2957     0.33446755E-007     0.10000000E+002                6
 RTBSE| Simulation step         Convergence     Electron number  ETRS Iterations
 RTBSE|            2958     0.34925830E-007     0.10000000E+002                6
 RTBSE| Simulation step         Convergence     Electron number  ETRS Iterations
 RTBSE|            2959     0.35710381E-007     0.10000000E+002                6
 RTBSE| Simulation step         Convergence     Electron number  ETRS Iterations
 RTBSE|            2960     0.37405516E-007     0.10000000E+002                6
 RTBSE| Simulation step         Convergence     Electron number  ETRS Iterations
 RTBSE|            2961     0.38424112E-007     0.10000000E+002                6
 RTBSE| Simulation step         Convergence     Electron number  ETRS Iterations
 RTBSE|            2962     0.38410029E-007     0.10000000E+002                6
 RTBSE| Simulation step         Convergence     Electron number  ETRS Iterations
 RTBSE|            2963     0.37332325E-007     0.10000000E+002                6
 RTBSE| Simulation step         Convergence     Electron number  ETRS Iterations
 RTBSE|            2964     0.35190873E-007     0.10000000E+002                6
 RTBSE| Simulation step         Convergence     Electron number  ETRS Iterations
 RTBSE|            2965     0.32106802E-007     0.10000000E+002                6
 RTBSE| Simulation step         Convergence     Electron number  ETRS Iterations
 RTBSE|            2966     0.28260290E-007     0.10000000E+002                6
 RTBSE| Simulation step         Convergence     Electron number  ETRS Iterations
 RTBSE|            2967     0.23872769E-007     0.10000000E+002                6
 RTBSE| Simulation step         Convergence     Electron number  ETRS Iterations
 RTBSE|            2968     0.19196296E-007     0.10000000E+002                6
 RTBSE| Simulation step         Convergence     Electron number  ETRS Iterations
 RTBSE|            2969     0.86557756E-007     0.10000000E+002                5
 RTBSE| Simulation step         Convergence     Electron number  ETRS Iterations
 RTBSE|            2970     0.70011678E-007     0.10000000E+002                5
 RTBSE| Simulation step         Convergence     Electron number  ETRS Iterations
 RTBSE|            2971     0.56275361E-007     0.10000000E+002                5
 RTBSE| Simulation step         Convergence     Electron number  ETRS Iterations
 RTBSE|            2972     0.72525393E-007     0.10000000E+002                5
 RTBSE| Simulation step         Convergence     Electron number  ETRS Iterations
 RTBSE|            2973     0.95301388E-007     0.10000000E+002                5
 RTBSE| Simulation step         Convergence     Electron number  ETRS Iterations
 RTBSE|            2974     0.16154406E-007     0.10000000E+002                6
 RTBSE| Simulation step         Convergence     Electron number  ETRS Iterations
 RTBSE|            2975     0.18635700E-007     0.10000000E+002                6
 RTBSE| Simulation step         Convergence     Electron number  ETRS Iterations
 RTBSE|            2976     0.21202313E-007     0.10000000E+002                6
 RTBSE| Simulation step         Convergence     Electron number  ETRS Iterations
 RTBSE|            2977     0.23883416E-007     0.10000000E+002                6
 RTBSE| Simulation step         Convergence     Electron number  ETRS Iterations
 RTBSE|            2978     0.26698291E-007     0.10000000E+002                6
 RTBSE| Simulation step         Convergence     Electron number  ETRS Iterations
 RTBSE|            2979     0.29629111E-007     0.10000000E+002                6
 RTBSE| Simulation step         Convergence     Electron number  ETRS Iterations
 RTBSE|            2980     0.32557957E-007     0.10000000E+002                6
 RTBSE| Simulation step         Convergence     Electron number  ETRS Iterations
 RTBSE|            2981     0.35303326E-007     0.10000000E+002                6
 RTBSE| Simulation step         Convergence     Electron number  ETRS Iterations
 RTBSE|            2982     0.37705762E-007     0.10000000E+002                6
 RTBSE| Simulation step         Convergence     Electron number  ETRS Iterations
 RTBSE|            2983     0.39449907E-007     0.10000000E+002                6
 RTBSE| Simulation step         Convergence     Electron number  ETRS Iterations
 RTBSE|            2984     0.40778775E-007     0.10000000E+002                6
 RTBSE| Simulation step         Convergence     Electron number  ETRS Iterations
 RTBSE|            2985     0.42811909E-007     0.10000000E+002                6
 RTBSE| Simulation step         Convergence     Electron number  ETRS Iterations
 RTBSE|            2986     0.43761466E-007     0.10000000E+002                6
 RTBSE| Simulation step         Convergence     Electron number  ETRS Iterations
 RTBSE|            2987     0.43504081E-007     0.10000000E+002                6
 RTBSE| Simulation step         Convergence     Electron number  ETRS Iterations
 RTBSE|            2988     0.42031482E-007     0.10000000E+002                6
 RTBSE| Simulation step         Convergence     Electron number  ETRS Iterations
 RTBSE|            2989     0.39384850E-007     0.10000000E+002                6
 RTBSE| Simulation step         Convergence     Electron number  ETRS Iterations
 RTBSE|            2990     0.35748372E-007     0.10000000E+002                6
 RTBSE| Simulation step         Convergence     Electron number  ETRS Iterations
 RTBSE|            2991     0.31345095E-007     0.10000000E+002                6
 RTBSE| Simulation step         Convergence     Electron number  ETRS Iterations
 RTBSE|            2992     0.26462099E-007     0.10000000E+002                6
 RTBSE| Simulation step         Convergence     Electron number  ETRS Iterations
 RTBSE|            2993     0.21369065E-007     0.10000000E+002                6
 RTBSE| Simulation step         Convergence     Electron number  ETRS Iterations
 RTBSE|            2994     0.92194075E-007     0.10000000E+002                5
 RTBSE| Simulation step         Convergence     Electron number  ETRS Iterations
 RTBSE|            2995     0.74772056E-007     0.10000000E+002                5
 RTBSE| Simulation step         Convergence     Electron number  ETRS Iterations
 RTBSE|            2996     0.58369303E-007     0.10000000E+002                5
 RTBSE| Simulation step         Convergence     Electron number  ETRS Iterations
 RTBSE|            2997     0.54438811E-007     0.10000000E+002                5
 RTBSE| Simulation step         Convergence     Electron number  ETRS Iterations
 RTBSE|            2998     0.76121556E-007     0.10000000E+002                5
 RTBSE| Simulation step         Convergence     Electron number  ETRS Iterations
 RTBSE|            2999     0.94897094E-007     0.10000000E+002                5
 RTBSE| Simulation step         Convergence     Electron number  ETRS Iterations
 RTBSE|            3000     0.14904697E-007     0.10000000E+002                6
 RTBSE| Simulation step         Convergence     Electron number  ETRS Iterations
 RTBSE|            3001     0.16920600E-007     0.10000000E+002                6
 RTBSE| Simulation step         Convergence     Electron number  ETRS Iterations
 RTBSE|            3002     0.19042572E-007     0.10000000E+002                6
 RTBSE| Simulation step         Convergence     Electron number  ETRS Iterations
 RTBSE|            3003     0.21337661E-007     0.10000000E+002                6
 RTBSE| Simulation step         Convergence     Electron number  ETRS Iterations
 RTBSE|            3004     0.23779695E-007     0.10000000E+002                6
 RTBSE| Simulation step         Convergence     Electron number  ETRS Iterations
 RTBSE|            3005     0.26372964E-007     0.10000000E+002                6
 RTBSE| Simulation step         Convergence     Electron number  ETRS Iterations
 RTBSE|            3006     0.28985410E-007     0.10000000E+002                6
 RTBSE| Simulation step         Convergence     Electron number  ETRS Iterations
 RTBSE|            3007     0.31425388E-007     0.10000000E+002                6
 RTBSE| Simulation step         Convergence     Electron number  ETRS Iterations
 RTBSE|            3008     0.33555213E-007     0.10000000E+002                6
 RTBSE| Simulation step         Convergence     Electron number  ETRS Iterations
 RTBSE|            3009     0.35146759E-007     0.10000000E+002                6
 RTBSE| Simulation step         Convergence     Electron number  ETRS Iterations
 RTBSE|            3010     0.35997071E-007     0.10000000E+002                6
 RTBSE| Simulation step         Convergence     Electron number  ETRS Iterations
 RTBSE|            3011     0.37485770E-007     0.10000000E+002                6
 RTBSE| Simulation step         Convergence     Electron number  ETRS Iterations
 RTBSE|            3012     0.38563880E-007     0.10000000E+002                6
 RTBSE| Simulation step         Convergence     Electron number  ETRS Iterations
 RTBSE|            3013     0.38614421E-007     0.10000000E+002                6
 RTBSE| Simulation step         Convergence     Electron number  ETRS Iterations
 RTBSE|            3014     0.37586901E-007     0.10000000E+002                6
 RTBSE| Simulation step         Convergence     Electron number  ETRS Iterations
 RTBSE|            3015     0.35518139E-007     0.10000000E+002                6
 RTBSE| Simulation step         Convergence     Electron number  ETRS Iterations
 RTBSE|            3016     0.32508173E-007     0.10000000E+002                6
 RTBSE| Simulation step         Convergence     Electron number  ETRS Iterations
 RTBSE|            3017     0.28727700E-007     0.10000000E+002                6
 RTBSE| Simulation step         Convergence     Electron number  ETRS Iterations
 RTBSE|            3018     0.24430146E-007     0.10000000E+002                6
 RTBSE| Simulation step         Convergence     Electron number  ETRS Iterations
 RTBSE|            3019     0.19841816E-007     0.10000000E+002                6
 RTBSE| Simulation step         Convergence     Electron number  ETRS Iterations
 RTBSE|            3020     0.88991657E-007     0.10000000E+002                5
 RTBSE| Simulation step         Convergence     Electron number  ETRS Iterations
 RTBSE|            3021     0.72802349E-007     0.10000000E+002                5
 RTBSE| Simulation step         Convergence     Electron number  ETRS Iterations
 RTBSE|            3022     0.58269787E-007     0.10000000E+002                5
 RTBSE| Simulation step         Convergence     Electron number  ETRS Iterations
 RTBSE|            3023     0.66777656E-007     0.10000000E+002                5
 RTBSE| Simulation step         Convergence     Electron number  ETRS Iterations
 RTBSE|            3024     0.90028345E-007     0.10000000E+002                5
 RTBSE| Simulation step         Convergence     Electron number  ETRS Iterations
 RTBSE|            3025     0.15592575E-007     0.10000000E+002                6
 RTBSE| Simulation step         Convergence     Electron number  ETRS Iterations
 RTBSE|            3026     0.18179386E-007     0.10000000E+002                6
 RTBSE| Simulation step         Convergence     Electron number  ETRS Iterations
 RTBSE|            3027     0.20830694E-007     0.10000000E+002                6
 RTBSE| Simulation step         Convergence     Electron number  ETRS Iterations
 RTBSE|            3028     0.23622040E-007     0.10000000E+002                6
 RTBSE| Simulation step         Convergence     Electron number  ETRS Iterations
 RTBSE|            3029     0.26540162E-007     0.10000000E+002                6
 RTBSE| Simulation step         Convergence     Electron number  ETRS Iterations
 RTBSE|            3030     0.29576166E-007     0.10000000E+002                6
 RTBSE| Simulation step         Convergence     Electron number  ETRS Iterations
 RTBSE|            3031     0.32592276E-007     0.10000000E+002                6
 RTBSE| Simulation step         Convergence     Electron number  ETRS Iterations
 RTBSE|            3032     0.35394286E-007     0.10000000E+002                6
 RTBSE| Simulation step         Convergence     Electron number  ETRS Iterations
 RTBSE|            3033     0.37762508E-007     0.10000000E+002                6
 RTBSE| Simulation step         Convergence     Electron number  ETRS Iterations
 RTBSE|            3034     0.39528763E-007     0.10000000E+002                6
 RTBSE| Simulation step         Convergence     Electron number  ETRS Iterations
 RTBSE|            3035     0.40744296E-007     0.10000000E+002                6
 RTBSE| Simulation step         Convergence     Electron number  ETRS Iterations
 RTBSE|            3036     0.42731956E-007     0.10000000E+002                6
 RTBSE| Simulation step         Convergence     Electron number  ETRS Iterations
 RTBSE|            3037     0.43634236E-007     0.10000000E+002                6
 RTBSE| Simulation step         Convergence     Electron number  ETRS Iterations
 RTBSE|            3038     0.43326814E-007     0.10000000E+002                6
 RTBSE| Simulation step         Convergence     Electron number  ETRS Iterations
 RTBSE|            3039     0.41798712E-007     0.10000000E+002                6
 RTBSE| Simulation step         Convergence     Electron number  ETRS Iterations
 RTBSE|            3040     0.39166823E-007     0.10000000E+002                6
 RTBSE| Simulation step         Convergence     Electron number  ETRS Iterations
 RTBSE|            3041     0.35558674E-007     0.10000000E+002                6
 RTBSE| Simulation step         Convergence     Electron number  ETRS Iterations
 RTBSE|            3042     0.31255575E-007     0.10000000E+002                6
 RTBSE| Simulation step         Convergence     Electron number  ETRS Iterations
 RTBSE|            3043     0.26501822E-007     0.10000000E+002                6
 RTBSE| Simulation step         Convergence     Electron number  ETRS Iterations
 RTBSE|            3044     0.21552306E-007     0.10000000E+002                6
 RTBSE| Simulation step         Convergence     Electron number  ETRS Iterations
 RTBSE|            3045     0.92990885E-007     0.10000000E+002                5
 RTBSE| Simulation step         Convergence     Electron number  ETRS Iterations
 RTBSE|            3046     0.76040407E-007     0.10000000E+002                5
 RTBSE| Simulation step         Convergence     Electron number  ETRS Iterations
 RTBSE|            3047     0.60352054E-007     0.10000000E+002                5
 RTBSE| Simulation step         Convergence     Electron number  ETRS Iterations
 RTBSE|            3048     0.48597099E-007     0.10000000E+002                5
 RTBSE| Simulation step         Convergence     Electron number  ETRS Iterations
 RTBSE|            3049     0.67899917E-007     0.10000000E+002                5
 RTBSE| Simulation step         Convergence     Electron number  ETRS Iterations
 RTBSE|            3050     0.86599264E-007     0.10000000E+002                5
 RTBSE| Simulation step         Convergence     Electron number  ETRS Iterations
 RTBSE|            3051     0.13916995E-007     0.10000000E+002                6
 RTBSE| Simulation step         Convergence     Electron number  ETRS Iterations
 RTBSE|            3052     0.16033573E-007     0.10000000E+002                6
 RTBSE| Simulation step         Convergence     Electron number  ETRS Iterations
 RTBSE|            3053     0.18275701E-007     0.10000000E+002                6
 RTBSE| Simulation step         Convergence     Electron number  ETRS Iterations
 RTBSE|            3054     0.20684451E-007     0.10000000E+002                6
 RTBSE| Simulation step         Convergence     Electron number  ETRS Iterations
 RTBSE|            3055     0.23297489E-007     0.10000000E+002                6
 RTBSE| Simulation step         Convergence     Electron number  ETRS Iterations
 RTBSE|            3056     0.26059132E-007     0.10000000E+002                6
 RTBSE| Simulation step         Convergence     Electron number  ETRS Iterations
 RTBSE|            3057     0.28807421E-007     0.10000000E+002                6
 RTBSE| Simulation step         Convergence     Electron number  ETRS Iterations
 RTBSE|            3058     0.31397649E-007     0.10000000E+002                6
 RTBSE| Simulation step         Convergence     Electron number  ETRS Iterations
 RTBSE|            3059     0.33640242E-007     0.10000000E+002                6
 RTBSE| Simulation step         Convergence     Electron number  ETRS Iterations
 RTBSE|            3060     0.35309804E-007     0.10000000E+002                6
 RTBSE| Simulation step         Convergence     Electron number  ETRS Iterations
 RTBSE|            3061     0.36220570E-007     0.10000000E+002                6
 RTBSE| Simulation step         Convergence     Electron number  ETRS Iterations
 RTBSE|            3062     0.37521733E-007     0.10000000E+002                6
 RTBSE| Simulation step         Convergence     Electron number  ETRS Iterations
 RTBSE|            3063     0.38655548E-007     0.10000000E+002                6
 RTBSE| Simulation step         Convergence     Electron number  ETRS Iterations
 RTBSE|            3064     0.38746678E-007     0.10000000E+002                6
 RTBSE| Simulation step         Convergence     Electron number  ETRS Iterations
 RTBSE|            3065     0.37749724E-007     0.10000000E+002                6
 RTBSE| Simulation step         Convergence     Electron number  ETRS Iterations
 RTBSE|            3066     0.35736425E-007     0.10000000E+002                6
 RTBSE| Simulation step         Convergence     Electron number  ETRS Iterations
 RTBSE|            3067     0.32781522E-007     0.10000000E+002                6
 RTBSE| Simulation step         Convergence     Electron number  ETRS Iterations
 RTBSE|            3068     0.29085747E-007     0.10000000E+002                6
 RTBSE| Simulation step         Convergence     Electron number  ETRS Iterations
 RTBSE|            3069     0.24891932E-007     0.10000000E+002                6
 RTBSE| Simulation step         Convergence     Electron number  ETRS Iterations
 RTBSE|            3070     0.20399806E-007     0.10000000E+002                6
 RTBSE| Simulation step         Convergence     Electron number  ETRS Iterations
 RTBSE|            3071     0.91059598E-007     0.10000000E+002                5
 RTBSE| Simulation step         Convergence     Electron number  ETRS Iterations
 RTBSE|            3072     0.75268060E-007     0.10000000E+002                5
 RTBSE| Simulation step         Convergence     Electron number  ETRS Iterations
 RTBSE|            3073     0.60195346E-007     0.10000000E+002                5
 RTBSE| Simulation step         Convergence     Electron number  ETRS Iterations
 RTBSE|            3074     0.60359600E-007     0.10000000E+002                5
 RTBSE| Simulation step         Convergence     Electron number  ETRS Iterations
 RTBSE|            3075     0.83835850E-007     0.10000000E+002                5
 RTBSE| Simulation step         Convergence     Electron number  ETRS Iterations
 RTBSE|            3076     0.14869026E-007     0.10000000E+002                6
 RTBSE| Simulation step         Convergence     Electron number  ETRS Iterations
 RTBSE|            3077     0.17508678E-007     0.10000000E+002                6
 RTBSE| Simulation step         Convergence     Electron number  ETRS Iterations
 RTBSE|            3078     0.20259598E-007     0.10000000E+002                6
 RTBSE| Simulation step         Convergence     Electron number  ETRS Iterations
 RTBSE|            3079     0.23157596E-007     0.10000000E+002                6
 RTBSE| Simulation step         Convergence     Electron number  ETRS Iterations
 RTBSE|            3080     0.26174522E-007     0.10000000E+002                6
 RTBSE| Simulation step         Convergence     Electron number  ETRS Iterations
 RTBSE|            3081     0.29299939E-007     0.10000000E+002                6
 RTBSE| Simulation step         Convergence     Electron number  ETRS Iterations
 RTBSE|            3082     0.32361401E-007     0.10000000E+002                6
 RTBSE| Simulation step         Convergence     Electron number  ETRS Iterations
 RTBSE|            3083     0.35211188E-007     0.10000000E+002                6
 RTBSE| Simulation step         Convergence     Electron number  ETRS Iterations
 RTBSE|            3084     0.37654927E-007     0.10000000E+002                6
 RTBSE| Simulation step         Convergence     Electron number  ETRS Iterations
 RTBSE|            3085     0.39440613E-007     0.10000000E+002                6
 RTBSE| Simulation step         Convergence     Electron number  ETRS Iterations
 RTBSE|            3086     0.40454608E-007     0.10000000E+002                6
 RTBSE| Simulation step         Convergence     Electron number  ETRS Iterations
 RTBSE|            3087     0.42437187E-007     0.10000000E+002                6
 RTBSE| Simulation step         Convergence     Electron number  ETRS Iterations
 RTBSE|            3088     0.43341509E-007     0.10000000E+002                6
 RTBSE| Simulation step         Convergence     Electron number  ETRS Iterations
 RTBSE|            3089     0.43068145E-007     0.10000000E+002                6
 RTBSE| Simulation step         Convergence     Electron number  ETRS Iterations
 RTBSE|            3090     0.41609271E-007     0.10000000E+002                6
 RTBSE| Simulation step         Convergence     Electron number  ETRS Iterations
 RTBSE|            3091     0.39048781E-007     0.10000000E+002                6
 RTBSE| Simulation step         Convergence     Electron number  ETRS Iterations
 RTBSE|            3092     0.35572141E-007     0.10000000E+002                6
 RTBSE| Simulation step         Convergence     Electron number  ETRS Iterations
 RTBSE|            3093     0.31407882E-007     0.10000000E+002                6
 RTBSE| Simulation step         Convergence     Electron number  ETRS Iterations
 RTBSE|            3094     0.26818486E-007     0.10000000E+002                6
 RTBSE| Simulation step         Convergence     Electron number  ETRS Iterations
 RTBSE|            3095     0.22096922E-007     0.10000000E+002                6
 RTBSE| Simulation step         Convergence     Electron number  ETRS Iterations
 RTBSE|            3096     0.95450658E-007     0.10000000E+002                5
 RTBSE| Simulation step         Convergence     Electron number  ETRS Iterations
 RTBSE|            3097     0.78725505E-007     0.10000000E+002                5
 RTBSE| Simulation step         Convergence     Electron number  ETRS Iterations
 RTBSE|            3098     0.63813522E-007     0.10000000E+002                5
 RTBSE| Simulation step         Convergence     Electron number  ETRS Iterations
 RTBSE|            3099     0.51151710E-007     0.10000000E+002                5
 RTBSE| Simulation step         Convergence     Electron number  ETRS Iterations
 RTBSE|            3100     0.58088998E-007     0.10000000E+002                5
 RTBSE| Simulation step         Convergence     Electron number  ETRS Iterations
 RTBSE|            3101     0.77173758E-007     0.10000000E+002                5
 RTBSE| Simulation step         Convergence     Electron number  ETRS Iterations
 RTBSE|            3102     0.95296358E-007     0.10000000E+002                5
 RTBSE| Simulation step         Convergence     Electron number  ETRS Iterations
 RTBSE|            3103     0.15153229E-007     0.10000000E+002                6
 RTBSE| Simulation step         Convergence     Electron number  ETRS Iterations
 RTBSE|            3104     0.17568856E-007     0.10000000E+002                6
 RTBSE| Simulation step         Convergence     Electron number  ETRS Iterations
 RTBSE|            3105     0.20204560E-007     0.10000000E+002                6
 RTBSE| Simulation step         Convergence     Electron number  ETRS Iterations
 RTBSE|            3106     0.23061971E-007     0.10000000E+002                6
 RTBSE| Simulation step         Convergence     Electron number  ETRS Iterations
 RTBSE|            3107     0.26012914E-007     0.10000000E+002                6
 RTBSE| Simulation step         Convergence     Electron number  ETRS Iterations
 RTBSE|            3108     0.28927791E-007     0.10000000E+002                6
 RTBSE| Simulation step         Convergence     Electron number  ETRS Iterations
 RTBSE|            3109     0.31673798E-007     0.10000000E+002                6
 RTBSE| Simulation step         Convergence     Electron number  ETRS Iterations
 RTBSE|            3110     0.33994478E-007     0.10000000E+002                6
 RTBSE| Simulation step         Convergence     Electron number  ETRS Iterations
 RTBSE|            3111     0.35731382E-007     0.10000000E+002                6
 RTBSE| Simulation step         Convergence     Electron number  ETRS Iterations
 RTBSE|            3112     0.36688557E-007     0.10000000E+002                6
 RTBSE| Simulation step         Convergence     Electron number  ETRS Iterations
 RTBSE|            3113     0.37836350E-007     0.10000000E+002                6
 RTBSE| Simulation step         Convergence     Electron number  ETRS Iterations
 RTBSE|            3114     0.38962667E-007     0.10000000E+002                6
 RTBSE| Simulation step         Convergence     Electron number  ETRS Iterations
 RTBSE|            3115     0.39047336E-007     0.10000000E+002                6
 RTBSE| Simulation step         Convergence     Electron number  ETRS Iterations
 RTBSE|            3116     0.38046882E-007     0.10000000E+002                6
 RTBSE| Simulation step         Convergence     Electron number  ETRS Iterations
 RTBSE|            3117     0.36023246E-007     0.10000000E+002                6
 RTBSE| Simulation step         Convergence     Electron number  ETRS Iterations
 RTBSE|            3118     0.33081469E-007     0.10000000E+002                6
 RTBSE| Simulation step         Convergence     Electron number  ETRS Iterations
 RTBSE|            3119     0.29405543E-007     0.10000000E+002                6
 RTBSE| Simulation step         Convergence     Electron number  ETRS Iterations
 RTBSE|            3120     0.25232224E-007     0.10000000E+002                6
 RTBSE| Simulation step         Convergence     Electron number  ETRS Iterations
 RTBSE|            3121     0.20803140E-007     0.10000000E+002                6
 RTBSE| Simulation step         Convergence     Electron number  ETRS Iterations
 RTBSE|            3122     0.92542889E-007     0.10000000E+002                5
 RTBSE| Simulation step         Convergence     Electron number  ETRS Iterations
 RTBSE|            3123     0.77019227E-007     0.10000000E+002                5
 RTBSE| Simulation step         Convergence     Electron number  ETRS Iterations
 RTBSE|            3124     0.62135646E-007     0.10000000E+002                5
 RTBSE| Simulation step         Convergence     Electron number  ETRS Iterations
 RTBSE|            3125     0.55078576E-007     0.10000000E+002                5
 RTBSE| Simulation step         Convergence     Electron number  ETRS Iterations
 RTBSE|            3126     0.78505547E-007     0.10000000E+002                5
 RTBSE| Simulation step         Convergence     Electron number  ETRS Iterations
 RTBSE|            3127     0.14216854E-007     0.10000000E+002                6
 RTBSE| Simulation step         Convergence     Electron number  ETRS Iterations
 RTBSE|            3128     0.16898858E-007     0.10000000E+002                6
 RTBSE| Simulation step         Convergence     Electron number  ETRS Iterations
 RTBSE|            3129     0.19691372E-007     0.10000000E+002                6
 RTBSE| Simulation step         Convergence     Electron number  ETRS Iterations
 RTBSE|            3130     0.22626077E-007     0.10000000E+002                6
 RTBSE| Simulation step         Convergence     Electron number  ETRS Iterations
 RTBSE|            3131     0.25738869E-007     0.10000000E+002                6
 RTBSE| Simulation step         Convergence     Electron number  ETRS Iterations
 RTBSE|            3132     0.28957027E-007     0.10000000E+002                6
 RTBSE| Simulation step         Convergence     Electron number  ETRS Iterations
 RTBSE|            3133     0.32107473E-007     0.10000000E+002                6
 RTBSE| Simulation step         Convergence     Electron number  ETRS Iterations
 RTBSE|            3134     0.35050253E-007     0.10000000E+002                6
 RTBSE| Simulation step         Convergence     Electron number  ETRS Iterations
 RTBSE|            3135     0.37538484E-007     0.10000000E+002                6
 RTBSE| Simulation step         Convergence     Electron number  ETRS Iterations
 RTBSE|            3136     0.39366668E-007     0.10000000E+002                6
 RTBSE| Simulation step         Convergence     Electron number  ETRS Iterations
 RTBSE|            3137     0.40318106E-007     0.10000000E+002                6
 RTBSE| Simulation step         Convergence     Electron number  ETRS Iterations
 RTBSE|            3138     0.42253175E-007     0.10000000E+002                6
 RTBSE| Simulation step         Convergence     Electron number  ETRS Iterations
 RTBSE|            3139     0.43198422E-007     0.10000000E+002                6
 RTBSE| Simulation step         Convergence     Electron number  ETRS Iterations
 RTBSE|            3140     0.42968907E-007     0.10000000E+002                6
 RTBSE| Simulation step         Convergence     Electron number  ETRS Iterations
 RTBSE|            3141     0.41568034E-007     0.10000000E+002                6
 RTBSE| Simulation step         Convergence     Electron number  ETRS Iterations
 RTBSE|            3142     0.39107030E-007     0.10000000E+002                6
 RTBSE| Simulation step         Convergence     Electron number  ETRS Iterations
 RTBSE|            3143     0.35733664E-007     0.10000000E+002                6
 RTBSE| Simulation step         Convergence     Electron number  ETRS Iterations
 RTBSE|            3144     0.31714151E-007     0.10000000E+002                6
 RTBSE| Simulation step         Convergence     Electron number  ETRS Iterations
 RTBSE|            3145     0.27275223E-007     0.10000000E+002                6
 RTBSE| Simulation step         Convergence     Electron number  ETRS Iterations
 RTBSE|            3146     0.22700934E-007     0.10000000E+002                6
 RTBSE| Simulation step         Convergence     Electron number  ETRS Iterations
 RTBSE|            3147     0.98237131E-007     0.10000000E+002                5
 RTBSE| Simulation step         Convergence     Electron number  ETRS Iterations
 RTBSE|            3148     0.81532709E-007     0.10000000E+002                5
 RTBSE| Simulation step         Convergence     Electron number  ETRS Iterations
 RTBSE|            3149     0.67228732E-007     0.10000000E+002                5
 RTBSE| Simulation step         Convergence     Electron number  ETRS Iterations
 RTBSE|            3150     0.54194538E-007     0.10000000E+002                5
 RTBSE| Simulation step         Convergence     Electron number  ETRS Iterations
 RTBSE|            3151     0.50201604E-007     0.10000000E+002                5
 RTBSE| Simulation step         Convergence     Electron number  ETRS Iterations
 RTBSE|            3152     0.69978514E-007     0.10000000E+002                5
 RTBSE| Simulation step         Convergence     Electron number  ETRS Iterations
 RTBSE|            3153     0.89126421E-007     0.10000000E+002                5
 RTBSE| Simulation step         Convergence     Electron number  ETRS Iterations
 RTBSE|            3154     0.14588238E-007     0.10000000E+002                6
 RTBSE| Simulation step         Convergence     Electron number  ETRS Iterations
 RTBSE|            3155     0.17197283E-007     0.10000000E+002                6
 RTBSE| Simulation step         Convergence     Electron number  ETRS Iterations
 RTBSE|            3156     0.20002277E-007     0.10000000E+002                6
 RTBSE| Simulation step         Convergence     Electron number  ETRS Iterations
 RTBSE|            3157     0.23007504E-007     0.10000000E+002                6
 RTBSE| Simulation step         Convergence     Electron number  ETRS Iterations
 RTBSE|            3158     0.26078444E-007     0.10000000E+002                6
 RTBSE| Simulation step         Convergence     Electron number  ETRS Iterations
 RTBSE|            3159     0.29116883E-007     0.10000000E+002                6
 RTBSE| Simulation step         Convergence     Electron number  ETRS Iterations
 RTBSE|            3160     0.31912683E-007     0.10000000E+002                6
 RTBSE| Simulation step         Convergence     Electron number  ETRS Iterations
 RTBSE|            3161     0.34288270E-007     0.10000000E+002                6
 RTBSE| Simulation step         Convergence     Electron number  ETRS Iterations
 RTBSE|            3162     0.35995847E-007     0.10000000E+002                6
 RTBSE| Simulation step         Convergence     Electron number  ETRS Iterations
 RTBSE|            3163     0.36884967E-007     0.10000000E+002                6
 RTBSE| Simulation step         Convergence     Electron number  ETRS Iterations
 RTBSE|            3164     0.37904928E-007     0.10000000E+002                6
 RTBSE| Simulation step         Convergence     Electron number  ETRS Iterations
 RTBSE|            3165     0.39004538E-007     0.10000000E+002                6
 RTBSE| Simulation step         Convergence     Electron number  ETRS Iterations
 RTBSE|            3166     0.39033709E-007     0.10000000E+002                6
 RTBSE| Simulation step         Convergence     Electron number  ETRS Iterations
 RTBSE|            3167     0.37994863E-007     0.10000000E+002                6
 RTBSE| Simulation step         Convergence     Electron number  ETRS Iterations
 RTBSE|            3168     0.35931217E-007     0.10000000E+002                6
 RTBSE| Simulation step         Convergence     Electron number  ETRS Iterations
 RTBSE|            3169     0.32988655E-007     0.10000000E+002                6
 RTBSE| Simulation step         Convergence     Electron number  ETRS Iterations
 RTBSE|            3170     0.29367776E-007     0.10000000E+002                6
 RTBSE| Simulation step         Convergence     Electron number  ETRS Iterations
 RTBSE|            3171     0.25277358E-007     0.10000000E+002                6
 RTBSE| Simulation step         Convergence     Electron number  ETRS Iterations
 RTBSE|            3172     0.20951987E-007     0.10000000E+002                6
 RTBSE| Simulation step         Convergence     Electron number  ETRS Iterations
 RTBSE|            3173     0.92998976E-007     0.10000000E+002                5
 RTBSE| Simulation step         Convergence     Electron number  ETRS Iterations
 RTBSE|            3174     0.77956184E-007     0.10000000E+002                5
 RTBSE| Simulation step         Convergence     Electron number  ETRS Iterations
 RTBSE|            3175     0.63594139E-007     0.10000000E+002                5
 RTBSE| Simulation step         Convergence     Electron number  ETRS Iterations
 RTBSE|            3176     0.52978977E-007     0.10000000E+002                5
 RTBSE| Simulation step         Convergence     Electron number  ETRS Iterations
 RTBSE|            3177     0.72258226E-007     0.10000000E+002                5
 RTBSE| Simulation step         Convergence     Electron number  ETRS Iterations
 RTBSE|            3178     0.93914545E-007     0.10000000E+002                5
 RTBSE| Simulation step         Convergence     Electron number  ETRS Iterations
 RTBSE|            3179     0.16095616E-007     0.10000000E+002                6
 RTBSE| Simulation step         Convergence     Electron number  ETRS Iterations
 RTBSE|            3180     0.18923137E-007     0.10000000E+002                6
 RTBSE| Simulation step         Convergence     Electron number  ETRS Iterations
 RTBSE|            3181     0.21915966E-007     0.10000000E+002                6
 RTBSE| Simulation step         Convergence     Electron number  ETRS Iterations
 RTBSE|            3182     0.25113073E-007     0.10000000E+002                6
 RTBSE| Simulation step         Convergence     Electron number  ETRS Iterations
 RTBSE|            3183     0.28421543E-007     0.10000000E+002                6
 RTBSE| Simulation step         Convergence     Electron number  ETRS Iterations
 RTBSE|            3184     0.31660444E-007     0.10000000E+002                6
 RTBSE| Simulation step         Convergence     Electron number  ETRS Iterations
 RTBSE|            3185     0.34667010E-007     0.10000000E+002                6
 RTBSE| Simulation step         Convergence     Electron number  ETRS Iterations
 RTBSE|            3186     0.37233908E-007     0.10000000E+002                6
 RTBSE| Simulation step         Convergence     Electron number  ETRS Iterations
 RTBSE|            3187     0.39108406E-007     0.10000000E+002                6
 RTBSE| Simulation step         Convergence     Electron number  ETRS Iterations
 RTBSE|            3188     0.40118954E-007     0.10000000E+002                6
 RTBSE| Simulation step         Convergence     Electron number  ETRS Iterations
 RTBSE|            3189     0.41834797E-007     0.10000000E+002                6
 RTBSE| Simulation step         Convergence     Electron number  ETRS Iterations
 RTBSE|            3190     0.42852662E-007     0.10000000E+002                6
 RTBSE| Simulation step         Convergence     Electron number  ETRS Iterations
 RTBSE|            3191     0.42706715E-007     0.10000000E+002                6
 RTBSE| Simulation step         Convergence     Electron number  ETRS Iterations
 RTBSE|            3192     0.41402623E-007     0.10000000E+002                6
 RTBSE| Simulation step         Convergence     Electron number  ETRS Iterations
 RTBSE|            3193     0.39080339E-007     0.10000000E+002                6
 RTBSE| Simulation step         Convergence     Electron number  ETRS Iterations
 RTBSE|            3194     0.35863940E-007     0.10000000E+002                6
 RTBSE| Simulation step         Convergence     Electron number  ETRS Iterations
 RTBSE|            3195     0.31999466E-007     0.10000000E+002                6
 RTBSE| Simulation step         Convergence     Electron number  ETRS Iterations
 RTBSE|            3196     0.27756554E-007     0.10000000E+002                6
 RTBSE| Simulation step         Convergence     Electron number  ETRS Iterations
 RTBSE|            3197     0.23375638E-007     0.10000000E+002                6
 RTBSE| Simulation step         Convergence     Electron number  ETRS Iterations
 RTBSE|            3198     0.19076143E-007     0.10000000E+002                6
 RTBSE| Simulation step         Convergence     Electron number  ETRS Iterations
 RTBSE|            3199     0.84770794E-007     0.10000000E+002                5
 RTBSE| Simulation step         Convergence     Electron number  ETRS Iterations
 RTBSE|            3200     0.71032156E-007     0.10000000E+002                5
 RTBSE| Simulation step         Convergence     Electron number  ETRS Iterations
 RTBSE|            3201     0.58324048E-007     0.10000000E+002                5
 RTBSE| Simulation step         Convergence     Electron number  ETRS Iterations
 RTBSE|            3202     0.49138567E-007     0.10000000E+002                5
 RTBSE| Simulation step         Convergence     Electron number  ETRS Iterations
 RTBSE|            3203     0.61988904E-007     0.10000000E+002                5
 RTBSE| Simulation step         Convergence     Electron number  ETRS Iterations
 RTBSE|            3204     0.82187936E-007     0.10000000E+002                5
 RTBSE| Simulation step         Convergence     Electron number  ETRS Iterations
 RTBSE|            3205     0.13946401E-007     0.10000000E+002                6
 RTBSE| Simulation step         Convergence     Electron number  ETRS Iterations
 RTBSE|            3206     0.16716175E-007     0.10000000E+002                6
 RTBSE| Simulation step         Convergence     Electron number  ETRS Iterations
 RTBSE|            3207     0.19681908E-007     0.10000000E+002                6
 RTBSE| Simulation step         Convergence     Electron number  ETRS Iterations
 RTBSE|            3208     0.22841714E-007     0.10000000E+002                6
 RTBSE| Simulation step         Convergence     Electron number  ETRS Iterations
 RTBSE|            3209     0.26071933E-007     0.10000000E+002                6
 RTBSE| Simulation step         Convergence     Electron number  ETRS Iterations
 RTBSE|            3210     0.29219891E-007     0.10000000E+002                6
 RTBSE| Simulation step         Convergence     Electron number  ETRS Iterations
 RTBSE|            3211     0.32091822E-007     0.10000000E+002                6
 RTBSE| Simulation step         Convergence     Electron number  ETRS Iterations
 RTBSE|            3212     0.34460998E-007     0.10000000E+002                6
 RTBSE| Simulation step         Convergence     Electron number  ETRS Iterations
 RTBSE|            3213     0.36196615E-007     0.10000000E+002                6
 RTBSE| Simulation step         Convergence     Electron number  ETRS Iterations
 RTBSE|            3214     0.37062945E-007     0.10000000E+002                6
 RTBSE| Simulation step         Convergence     Electron number  ETRS Iterations
 RTBSE|            3215     0.37892614E-007     0.10000000E+002                6
 RTBSE| Simulation step         Convergence     Electron number  ETRS Iterations
 RTBSE|            3216     0.38926958E-007     0.10000000E+002                6
 RTBSE| Simulation step         Convergence     Electron number  ETRS Iterations
 RTBSE|            3217     0.38908632E-007     0.10000000E+002                6
 RTBSE| Simulation step         Convergence     Electron number  ETRS Iterations
 RTBSE|            3218     0.37830851E-007     0.10000000E+002                6
 RTBSE| Simulation step         Convergence     Electron number  ETRS Iterations
 RTBSE|            3219     0.35762602E-007     0.10000000E+002                6
 RTBSE| Simulation step         Convergence     Electron number  ETRS Iterations
 RTBSE|            3220     0.32865095E-007     0.10000000E+002                6
 RTBSE| Simulation step         Convergence     Electron number  ETRS Iterations
 RTBSE|            3221     0.29316127E-007     0.10000000E+002                6
 RTBSE| Simulation step         Convergence     Electron number  ETRS Iterations
 RTBSE|            3222     0.25353579E-007     0.10000000E+002                6
 RTBSE| Simulation step         Convergence     Electron number  ETRS Iterations
 RTBSE|            3223     0.21202407E-007     0.10000000E+002                6
 RTBSE| Simulation step         Convergence     Electron number  ETRS Iterations
 RTBSE|            3224     0.93884883E-007     0.10000000E+002                5
 RTBSE| Simulation step         Convergence     Electron number  ETRS Iterations
 RTBSE|            3225     0.79685466E-007     0.10000000E+002                5
 RTBSE| Simulation step         Convergence     Electron number  ETRS Iterations
 RTBSE|            3226     0.66076972E-007     0.10000000E+002                5
 RTBSE| Simulation step         Convergence     Electron number  ETRS Iterations
 RTBSE|            3227     0.54713903E-007     0.10000000E+002                5
 RTBSE| Simulation step         Convergence     Electron number  ETRS Iterations
 RTBSE|            3228     0.63811343E-007     0.10000000E+002                5
 RTBSE| Simulation step         Convergence     Electron number  ETRS Iterations
 RTBSE|            3229     0.85530358E-007     0.10000000E+002                5
 RTBSE| Simulation step         Convergence     Electron number  ETRS Iterations
 RTBSE|            3230     0.15117945E-007     0.10000000E+002                6
 RTBSE| Simulation step         Convergence     Electron number  ETRS Iterations
 RTBSE|            3231     0.18026289E-007     0.10000000E+002                6
 RTBSE| Simulation step         Convergence     Electron number  ETRS Iterations
 RTBSE|            3232     0.21157223E-007     0.10000000E+002                6
 RTBSE| Simulation step         Convergence     Electron number  ETRS Iterations
 RTBSE|            3233     0.24481414E-007     0.10000000E+002                6
 RTBSE| Simulation step         Convergence     Electron number  ETRS Iterations
 RTBSE|            3234     0.27935047E-007     0.10000000E+002                6
 RTBSE| Simulation step         Convergence     Electron number  ETRS Iterations
 RTBSE|            3235     0.31328204E-007     0.10000000E+002                6
 RTBSE| Simulation step         Convergence     Electron number  ETRS Iterations
 RTBSE|            3236     0.34491284E-007     0.10000000E+002                6
 RTBSE| Simulation step         Convergence     Electron number  ETRS Iterations
 RTBSE|            3237     0.37179405E-007     0.10000000E+002                6
 RTBSE| Simulation step         Convergence     Electron number  ETRS Iterations
 RTBSE|            3238     0.39164420E-007     0.10000000E+002                6
 RTBSE| Simulation step         Convergence     Electron number  ETRS Iterations
 RTBSE|            3239     0.40255423E-007     0.10000000E+002                6
 RTBSE| Simulation step         Convergence     Electron number  ETRS Iterations
 RTBSE|            3240     0.41795766E-007     0.10000000E+002                6
 RTBSE| Simulation step         Convergence     Electron number  ETRS Iterations
 RTBSE|            3241     0.42882705E-007     0.10000000E+002                6
 RTBSE| Simulation step         Convergence     Electron number  ETRS Iterations
 RTBSE|            3242     0.42820484E-007     0.10000000E+002                6
 RTBSE| Simulation step         Convergence     Electron number  ETRS Iterations
 RTBSE|            3243     0.41604546E-007     0.10000000E+002                6
 RTBSE| Simulation step         Convergence     Electron number  ETRS Iterations
 RTBSE|            3244     0.39355789E-007     0.10000000E+002                6
 RTBSE| Simulation step         Convergence     Electron number  ETRS Iterations
 RTBSE|            3245     0.36258184E-007     0.10000000E+002                6
 RTBSE| Simulation step         Convergence     Electron number  ETRS Iterations
 RTBSE|            3246     0.32522137E-007     0.10000000E+002                6
 RTBSE| Simulation step         Convergence     Electron number  ETRS Iterations
 RTBSE|            3247     0.28403788E-007     0.10000000E+002                6
 RTBSE| Simulation step         Convergence     Electron number  ETRS Iterations
 RTBSE|            3248     0.24123162E-007     0.10000000E+002                6
 RTBSE| Simulation step         Convergence     Electron number  ETRS Iterations
 RTBSE|            3249     0.19928312E-007     0.10000000E+002                6
 RTBSE| Simulation step         Convergence     Electron number  ETRS Iterations
 RTBSE|            3250     0.88420827E-007     0.10000000E+002                5
 RTBSE| Simulation step         Convergence     Electron number  ETRS Iterations
 RTBSE|            3251     0.74532251E-007     0.10000000E+002                5
 RTBSE| Simulation step         Convergence     Electron number  ETRS Iterations
 RTBSE|            3252     0.62091954E-007     0.10000000E+002                5
 RTBSE| Simulation step         Convergence     Electron number  ETRS Iterations
 RTBSE|            3253     0.52044463E-007     0.10000000E+002                5
 RTBSE| Simulation step         Convergence     Electron number  ETRS Iterations
 RTBSE|            3254     0.55965432E-007     0.10000000E+002                5
 RTBSE| Simulation step         Convergence     Electron number  ETRS Iterations
 RTBSE|            3255     0.77185906E-007     0.10000000E+002                5
 RTBSE| Simulation step         Convergence     Electron number  ETRS Iterations
 RTBSE|            3256     0.99076426E-007     0.10000000E+002                5
 RTBSE| Simulation step         Convergence     Electron number  ETRS Iterations
 RTBSE|            3257     0.16412227E-007     0.10000000E+002                6
 RTBSE| Simulation step         Convergence     Electron number  ETRS Iterations
 RTBSE|            3258     0.19521942E-007     0.10000000E+002                6
 RTBSE| Simulation step         Convergence     Electron number  ETRS Iterations
 RTBSE|            3259     0.22802553E-007     0.10000000E+002                6
 RTBSE| Simulation step         Convergence     Electron number  ETRS Iterations
 RTBSE|            3260     0.26132217E-007     0.10000000E+002                6
 RTBSE| Simulation step         Convergence     Electron number  ETRS Iterations
 RTBSE|            3261     0.29300879E-007     0.10000000E+002                6
 RTBSE| Simulation step         Convergence     Electron number  ETRS Iterations
 RTBSE|            3262     0.32189456E-007     0.10000000E+002                6
 RTBSE| Simulation step         Convergence     Electron number  ETRS Iterations
 RTBSE|            3263     0.34587655E-007     0.10000000E+002                6
 RTBSE| Simulation step         Convergence     Electron number  ETRS Iterations
 RTBSE|            3264     0.36264011E-007     0.10000000E+002                6
 RTBSE| Simulation step         Convergence     Electron number  ETRS Iterations
 RTBSE|            3265     0.37087966E-007     0.10000000E+002                6
 RTBSE| Simulation step         Convergence     Electron number  ETRS Iterations
 RTBSE|            3266     0.37749794E-007     0.10000000E+002                6
 RTBSE| Simulation step         Convergence     Electron number  ETRS Iterations
 RTBSE|            3267     0.38716621E-007     0.10000000E+002                6
 RTBSE| Simulation step         Convergence     Electron number  ETRS Iterations
 RTBSE|            3268     0.38658576E-007     0.10000000E+002                6
 RTBSE| Simulation step         Convergence     Electron number  ETRS Iterations
 RTBSE|            3269     0.37566055E-007     0.10000000E+002                6
 RTBSE| Simulation step         Convergence     Electron number  ETRS Iterations
 RTBSE|            3270     0.35535610E-007     0.10000000E+002                6
 RTBSE| Simulation step         Convergence     Electron number  ETRS Iterations
 RTBSE|            3271     0.32711248E-007     0.10000000E+002                6
 RTBSE| Simulation step         Convergence     Electron number  ETRS Iterations
 RTBSE|            3272     0.29293596E-007     0.10000000E+002                6
 RTBSE| Simulation step         Convergence     Electron number  ETRS Iterations
 RTBSE|            3273     0.25506366E-007     0.10000000E+002                6
 RTBSE| Simulation step         Convergence     Electron number  ETRS Iterations
 RTBSE|            3274     0.21542271E-007     0.10000000E+002                6
 RTBSE| Simulation step         Convergence     Electron number  ETRS Iterations
 RTBSE|            3275     0.95256783E-007     0.10000000E+002                5
 RTBSE| Simulation step         Convergence     Electron number  ETRS Iterations
 RTBSE|            3276     0.81772028E-007     0.10000000E+002                5
 RTBSE| Simulation step         Convergence     Electron number  ETRS Iterations
 RTBSE|            3277     0.68894626E-007     0.10000000E+002                5
 RTBSE| Simulation step         Convergence     Electron number  ETRS Iterations
 RTBSE|            3278     0.57082187E-007     0.10000000E+002                5
 RTBSE| Simulation step         Convergence     Electron number  ETRS Iterations
 RTBSE|            3279     0.55861649E-007     0.10000000E+002                5
 RTBSE| Simulation step         Convergence     Electron number  ETRS Iterations
 RTBSE|            3280     0.78005460E-007     0.10000000E+002                5
 RTBSE| Simulation step         Convergence     Electron number  ETRS Iterations
 RTBSE|            3281     0.14309508E-007     0.10000000E+002                6
 RTBSE| Simulation step         Convergence     Electron number  ETRS Iterations
 RTBSE|            3282     0.17321014E-007     0.10000000E+002                6
 RTBSE| Simulation step         Convergence     Electron number  ETRS Iterations
 RTBSE|            3283     0.20591250E-007     0.10000000E+002                6
 RTBSE| Simulation step         Convergence     Electron number  ETRS Iterations
 RTBSE|            3284     0.24065446E-007     0.10000000E+002                6
 RTBSE| Simulation step         Convergence     Electron number  ETRS Iterations
 RTBSE|            3285     0.27645798E-007     0.10000000E+002                6
 RTBSE| Simulation step         Convergence     Electron number  ETRS Iterations
 RTBSE|            3286     0.31192524E-007     0.10000000E+002                6
 RTBSE| Simulation step         Convergence     Electron number  ETRS Iterations
 RTBSE|            3287     0.34456383E-007     0.10000000E+002                6
 RTBSE| Simulation step         Convergence     Electron number  ETRS Iterations
 RTBSE|            3288     0.37223105E-007     0.10000000E+002                6
 RTBSE| Simulation step         Convergence     Electron number  ETRS Iterations
 RTBSE|            3289     0.39254157E-007     0.10000000E+002                6
 RTBSE| Simulation step         Convergence     Electron number  ETRS Iterations
 RTBSE|            3290     0.40393038E-007     0.10000000E+002                6
 RTBSE| Simulation step         Convergence     Electron number  ETRS Iterations
 RTBSE|            3291     0.41774339E-007     0.10000000E+002                6
 RTBSE| Simulation step         Convergence     Electron number  ETRS Iterations
 RTBSE|            3292     0.42902923E-007     0.10000000E+002                6
 RTBSE| Simulation step         Convergence     Electron number  ETRS Iterations
 RTBSE|            3293     0.42850924E-007     0.10000000E+002                6
 RTBSE| Simulation step         Convergence     Electron number  ETRS Iterations
 RTBSE|            3294     0.41660860E-007     0.10000000E+002                6
 RTBSE| Simulation step         Convergence     Electron number  ETRS Iterations
 RTBSE|            3295     0.39446633E-007     0.10000000E+002                6
 RTBSE| Simulation step         Convergence     Electron number  ETRS Iterations
 RTBSE|            3296     0.36390701E-007     0.10000000E+002                6
 RTBSE| Simulation step         Convergence     Electron number  ETRS Iterations
 RTBSE|            3297     0.32711686E-007     0.10000000E+002                6
 RTBSE| Simulation step         Convergence     Electron number  ETRS Iterations
 RTBSE|            3298     0.28682028E-007     0.10000000E+002                6
 RTBSE| Simulation step         Convergence     Electron number  ETRS Iterations
 RTBSE|            3299     0.24529373E-007     0.10000000E+002                6
 RTBSE| Simulation step         Convergence     Electron number  ETRS Iterations
 RTBSE|            3300     0.20437494E-007     0.10000000E+002                6
 RTBSE| Simulation step         Convergence     Electron number  ETRS Iterations
 RTBSE|            3301     0.90763900E-007     0.10000000E+002                5
 RTBSE| Simulation step         Convergence     Electron number  ETRS Iterations
 RTBSE|            3302     0.76750821E-007     0.10000000E+002                5
 RTBSE| Simulation step         Convergence     Electron number  ETRS Iterations
 RTBSE|            3303     0.64619727E-007     0.10000000E+002                5
 RTBSE| Simulation step         Convergence     Electron number  ETRS Iterations
 RTBSE|            3304     0.54248523E-007     0.10000000E+002                5
 RTBSE| Simulation step         Convergence     Electron number  ETRS Iterations
 RTBSE|            3305     0.49984803E-007     0.10000000E+002                5
 RTBSE| Simulation step         Convergence     Electron number  ETRS Iterations
 RTBSE|            3306     0.71737224E-007     0.10000000E+002                5
 RTBSE| Simulation step         Convergence     Electron number  ETRS Iterations
 RTBSE|            3307     0.94436455E-007     0.10000000E+002                5
 RTBSE| Simulation step         Convergence     Electron number  ETRS Iterations
 RTBSE|            3308     0.15983627E-007     0.10000000E+002                6
 RTBSE| Simulation step         Convergence     Electron number  ETRS Iterations
 RTBSE|            3309     0.19192385E-007     0.10000000E+002                6
 RTBSE| Simulation step         Convergence     Electron number  ETRS Iterations
 RTBSE|            3310     0.22521863E-007     0.10000000E+002                6
 RTBSE| Simulation step         Convergence     Electron number  ETRS Iterations
 RTBSE|            3311     0.25894826E-007     0.10000000E+002                6
 RTBSE| Simulation step         Convergence     Electron number  ETRS Iterations
 RTBSE|            3312     0.29130787E-007     0.10000000E+002                6
 RTBSE| Simulation step         Convergence     Electron number  ETRS Iterations
 RTBSE|            3313     0.32018774E-007     0.10000000E+002                6
 RTBSE| Simulation step         Convergence     Electron number  ETRS Iterations
 RTBSE|            3314     0.34388680E-007     0.10000000E+002                6
 RTBSE| Simulation step         Convergence     Electron number  ETRS Iterations
 RTBSE|            3315     0.36044303E-007     0.10000000E+002                6
 RTBSE| Simulation step         Convergence     Electron number  ETRS Iterations
 RTBSE|            3316     0.36843362E-007     0.10000000E+002                6
 RTBSE| Simulation step         Convergence     Electron number  ETRS Iterations
 RTBSE|            3317     0.37279019E-007     0.10000000E+002                6
 RTBSE| Simulation step         Convergence     Electron number  ETRS Iterations
 RTBSE|            3318     0.38226709E-007     0.10000000E+002                6
 RTBSE| Simulation step         Convergence     Electron number  ETRS Iterations
 RTBSE|            3319     0.38176442E-007     0.10000000E+002                6
 RTBSE| Simulation step         Convergence     Electron number  ETRS Iterations
 RTBSE|            3320     0.37123720E-007     0.10000000E+002                6
 RTBSE| Simulation step         Convergence     Electron number  ETRS Iterations
 RTBSE|            3321     0.35192430E-007     0.10000000E+002                6
 RTBSE| Simulation step         Convergence     Electron number  ETRS Iterations
 RTBSE|            3322     0.32508793E-007     0.10000000E+002                6
 RTBSE| Simulation step         Convergence     Electron number  ETRS Iterations
 RTBSE|            3323     0.29285918E-007     0.10000000E+002                6
 RTBSE| Simulation step         Convergence     Electron number  ETRS Iterations
 RTBSE|            3324     0.25707409E-007     0.10000000E+002                6
 RTBSE| Simulation step         Convergence     Electron number  ETRS Iterations
 RTBSE|            3325     0.21988780E-007     0.10000000E+002                6
 RTBSE| Simulation step         Convergence     Electron number  ETRS Iterations
 RTBSE|            3326     0.96967496E-007     0.10000000E+002                5
 RTBSE| Simulation step         Convergence     Electron number  ETRS Iterations
 RTBSE|            3327     0.84491561E-007     0.10000000E+002                5
 RTBSE| Simulation step         Convergence     Electron number  ETRS Iterations
 RTBSE|            3328     0.72478095E-007     0.10000000E+002                5
 RTBSE| Simulation step         Convergence     Electron number  ETRS Iterations
 RTBSE|            3329     0.61039772E-007     0.10000000E+002                5
 RTBSE| Simulation step         Convergence     Electron number  ETRS Iterations
 RTBSE|            3330     0.52823912E-007     0.10000000E+002                5
 RTBSE| Simulation step         Convergence     Electron number  ETRS Iterations
 RTBSE|            3331     0.68927046E-007     0.10000000E+002                5
 RTBSE| Simulation step         Convergence     Electron number  ETRS Iterations
 RTBSE|            3332     0.92224411E-007     0.10000000E+002                5
 RTBSE| Simulation step         Convergence     Electron number  ETRS Iterations
 RTBSE|            3333     0.16456740E-007     0.10000000E+002                6
 RTBSE| Simulation step         Convergence     Electron number  ETRS Iterations
 RTBSE|            3334     0.19892702E-007     0.10000000E+002                6
 RTBSE| Simulation step         Convergence     Electron number  ETRS Iterations
 RTBSE|            3335     0.23551777E-007     0.10000000E+002                6
 RTBSE| Simulation step         Convergence     Electron number  ETRS Iterations
 RTBSE|            3336     0.27331707E-007     0.10000000E+002                6
 RTBSE| Simulation step         Convergence     Electron number  ETRS Iterations
 RTBSE|            3337     0.31013612E-007     0.10000000E+002                6
 RTBSE| Simulation step         Convergence     Electron number  ETRS Iterations
 RTBSE|            3338     0.34404397E-007     0.10000000E+002                6
 RTBSE| Simulation step         Convergence     Electron number  ETRS Iterations
 RTBSE|            3339     0.37279429E-007     0.10000000E+002                6
 RTBSE| Simulation step         Convergence     Electron number  ETRS Iterations
 RTBSE|            3340     0.39387214E-007     0.10000000E+002                6
 RTBSE| Simulation step         Convergence     Electron number  ETRS Iterations
 RTBSE|            3341     0.40558631E-007     0.10000000E+002                6
 RTBSE| Simulation step         Convergence     Electron number  ETRS Iterations
 RTBSE|            3342     0.41794797E-007     0.10000000E+002                6
 RTBSE| Simulation step         Convergence     Electron number  ETRS Iterations
 RTBSE|            3343     0.42935787E-007     0.10000000E+002                6
 RTBSE| Simulation step         Convergence     Electron number  ETRS Iterations
 RTBSE|            3344     0.42901651E-007     0.10000000E+002                6
 RTBSE| Simulation step         Convergence     Electron number  ETRS Iterations
 RTBSE|            3345     0.41729489E-007     0.10000000E+002                6
 RTBSE| Simulation step         Convergence     Electron number  ETRS Iterations
 RTBSE|            3346     0.39540735E-007     0.10000000E+002                6
 RTBSE| Simulation step         Convergence     Electron number  ETRS Iterations
 RTBSE|            3347     0.36522387E-007     0.10000000E+002                6
 RTBSE| Simulation step         Convergence     Electron number  ETRS Iterations
 RTBSE|            3348     0.32930343E-007     0.10000000E+002                6
 RTBSE| Simulation step         Convergence     Electron number  ETRS Iterations
 RTBSE|            3349     0.28987097E-007     0.10000000E+002                6
 RTBSE| Simulation step         Convergence     Electron number  ETRS Iterations
 RTBSE|            3350     0.24939882E-007     0.10000000E+002                6
 RTBSE| Simulation step         Convergence     Electron number  ETRS Iterations
 RTBSE|            3351     0.20970428E-007     0.10000000E+002                6
 RTBSE| Simulation step         Convergence     Electron number  ETRS Iterations
 RTBSE|            3352     0.93113495E-007     0.10000000E+002                5
 RTBSE| Simulation step         Convergence     Electron number  ETRS Iterations
 RTBSE|            3353     0.79070756E-007     0.10000000E+002                5
 RTBSE| Simulation step         Convergence     Electron number  ETRS Iterations
 RTBSE|            3354     0.67373912E-007     0.10000000E+002                5
 RTBSE| Simulation step         Convergence     Electron number  ETRS Iterations
 RTBSE|            3355     0.56899788E-007     0.10000000E+002                5
 RTBSE| Simulation step         Convergence     Electron number  ETRS Iterations
 RTBSE|            3356     0.49363807E-007     0.10000000E+002                5
 RTBSE| Simulation step         Convergence     Electron number  ETRS Iterations
 RTBSE|            3357     0.65201499E-007     0.10000000E+002                5
 RTBSE| Simulation step         Convergence     Electron number  ETRS Iterations
 RTBSE|            3358     0.88470687E-007     0.10000000E+002                5
 RTBSE| Simulation step         Convergence     Electron number  ETRS Iterations
 RTBSE|            3359     0.15342047E-007     0.10000000E+002                6
 RTBSE| Simulation step         Convergence     Electron number  ETRS Iterations
 RTBSE|            3360     0.18635144E-007     0.10000000E+002                6
 RTBSE| Simulation step         Convergence     Electron number  ETRS Iterations
 RTBSE|            3361     0.22076500E-007     0.10000000E+002                6
 RTBSE| Simulation step         Convergence     Electron number  ETRS Iterations
 RTBSE|            3362     0.25529952E-007     0.10000000E+002                6
 RTBSE| Simulation step         Convergence     Electron number  ETRS Iterations
 RTBSE|            3363     0.28843567E-007     0.10000000E+002                6
 RTBSE| Simulation step         Convergence     Electron number  ETRS Iterations
 RTBSE|            3364     0.31781282E-007     0.10000000E+002                6
 RTBSE| Simulation step         Convergence     Electron number  ETRS Iterations
 RTBSE|            3365     0.34206954E-007     0.10000000E+002                6
 RTBSE| Simulation step         Convergence     Electron number  ETRS Iterations
 RTBSE|            3366     0.35910475E-007     0.10000000E+002                6
 RTBSE| Simulation step         Convergence     Electron number  ETRS Iterations
 RTBSE|            3367     0.36767026E-007     0.10000000E+002                6
 RTBSE| Simulation step         Convergence     Electron number  ETRS Iterations
 RTBSE|            3368     0.36998515E-007     0.10000000E+002                6
 RTBSE| Simulation step         Convergence     Electron number  ETRS Iterations
 RTBSE|            3369     0.38004969E-007     0.10000000E+002                6
 RTBSE| Simulation step         Convergence     Electron number  ETRS Iterations
 RTBSE|            3370     0.38000906E-007     0.10000000E+002                6
 RTBSE| Simulation step         Convergence     Electron number  ETRS Iterations
 RTBSE|            3371     0.37054642E-007     0.10000000E+002                6
 RTBSE| Simulation step         Convergence     Electron number  ETRS Iterations
 RTBSE|            3372     0.35248933E-007     0.10000000E+002                6
 RTBSE| Simulation step         Convergence     Electron number  ETRS Iterations
 RTBSE|            3373     0.32723218E-007     0.10000000E+002                6
 RTBSE| Simulation step         Convergence     Electron number  ETRS Iterations
 RTBSE|            3374     0.29669954E-007     0.10000000E+002                6
 RTBSE| Simulation step         Convergence     Electron number  ETRS Iterations
 RTBSE|            3375     0.26272706E-007     0.10000000E+002                6
 RTBSE| Simulation step         Convergence     Electron number  ETRS Iterations
 RTBSE|            3376     0.22750729E-007     0.10000000E+002                6
 RTBSE| Simulation step         Convergence     Electron number  ETRS Iterations
 RTBSE|            3377     0.19221909E-007     0.10000000E+002                6
 RTBSE| Simulation step         Convergence     Electron number  ETRS Iterations
 RTBSE|            3378     0.88110416E-007     0.10000000E+002                5
 RTBSE| Simulation step         Convergence     Electron number  ETRS Iterations
 RTBSE|            3379     0.76588480E-007     0.10000000E+002                5
 RTBSE| Simulation step         Convergence     Electron number  ETRS Iterations
 RTBSE|            3380     0.65450949E-007     0.10000000E+002                5
 RTBSE| Simulation step         Convergence     Electron number  ETRS Iterations
 RTBSE|            3381     0.56132666E-007     0.10000000E+002                5
 RTBSE| Simulation step         Convergence     Electron number  ETRS Iterations
 RTBSE|            3382     0.62206765E-007     0.10000000E+002                5
 RTBSE| Simulation step         Convergence     Electron number  ETRS Iterations
 RTBSE|            3383     0.86788496E-007     0.10000000E+002                5
 RTBSE| Simulation step         Convergence     Electron number  ETRS Iterations
 RTBSE|            3384     0.15992523E-007     0.10000000E+002                6
 RTBSE| Simulation step         Convergence     Electron number  ETRS Iterations
 RTBSE|            3385     0.19619365E-007     0.10000000E+002                6
 RTBSE| Simulation step         Convergence     Electron number  ETRS Iterations
 RTBSE|            3386     0.23398816E-007     0.10000000E+002                6
 RTBSE| Simulation step         Convergence     Electron number  ETRS Iterations
 RTBSE|            3387     0.27287849E-007     0.10000000E+002                6
 RTBSE| Simulation step         Convergence     Electron number  ETRS Iterations
 RTBSE|            3388     0.31093915E-007     0.10000000E+002                6
 RTBSE| Simulation step         Convergence     Electron number  ETRS Iterations
 RTBSE|            3389     0.34545247E-007     0.10000000E+002                6
 RTBSE| Simulation step         Convergence     Electron number  ETRS Iterations
 RTBSE|            3390     0.37438333E-007     0.10000000E+002                6
 RTBSE| Simulation step         Convergence     Electron number  ETRS Iterations
 RTBSE|            3391     0.39535574E-007     0.10000000E+002                6
 RTBSE| Simulation step         Convergence     Electron number  ETRS Iterations
 RTBSE|            3392     0.40656784E-007     0.10000000E+002                6
 RTBSE| Simulation step         Convergence     Electron number  ETRS Iterations
 RTBSE|            3393     0.41755366E-007     0.10000000E+002                6
 RTBSE| Simulation step         Convergence     Electron number  ETRS Iterations
 RTBSE|            3394     0.42837999E-007     0.10000000E+002                6
 RTBSE| Simulation step         Convergence     Electron number  ETRS Iterations
 RTBSE|            3395     0.42740776E-007     0.10000000E+002                6
 RTBSE| Simulation step         Convergence     Electron number  ETRS Iterations
 RTBSE|            3396     0.41540752E-007     0.10000000E+002                6
 RTBSE| Simulation step         Convergence     Electron number  ETRS Iterations
 RTBSE|            3397     0.39356582E-007     0.10000000E+002                6
 RTBSE| Simulation step         Convergence     Electron number  ETRS Iterations
 RTBSE|            3398     0.36391430E-007     0.10000000E+002                6
 RTBSE| Simulation step         Convergence     Electron number  ETRS Iterations
 RTBSE|            3399     0.32895131E-007     0.10000000E+002                6
 RTBSE| Simulation step         Convergence     Electron number  ETRS Iterations
 RTBSE|            3400     0.29093190E-007     0.10000000E+002                6
 RTBSE| Simulation step         Convergence     Electron number  ETRS Iterations
 RTBSE|            3401     0.25202188E-007     0.10000000E+002                6
 RTBSE| Simulation step         Convergence     Electron number  ETRS Iterations
 RTBSE|            3402     0.21414244E-007     0.10000000E+002                6
 RTBSE| Simulation step         Convergence     Electron number  ETRS Iterations
 RTBSE|            3403     0.95327618E-007     0.10000000E+002                5
 RTBSE| Simulation step         Convergence     Electron number  ETRS Iterations
 RTBSE|            3404     0.81819871E-007     0.10000000E+002                5
 RTBSE| Simulation step         Convergence     Electron number  ETRS Iterations
 RTBSE|            3405     0.70145930E-007     0.10000000E+002                5
 RTBSE| Simulation step         Convergence     Electron number  ETRS Iterations
 RTBSE|            3406     0.59903980E-007     0.10000000E+002                5
 RTBSE| Simulation step         Convergence     Electron number  ETRS Iterations
 RTBSE|            3407     0.51893127E-007     0.10000000E+002                5
 RTBSE| Simulation step         Convergence     Electron number  ETRS Iterations
 RTBSE|            3408     0.58049993E-007     0.10000000E+002                5
 RTBSE| Simulation step         Convergence     Electron number  ETRS Iterations
 RTBSE|            3409     0.82058165E-007     0.10000000E+002                5
 RTBSE| Simulation step         Convergence     Electron number  ETRS Iterations
 RTBSE|            3410     0.14727627E-007     0.10000000E+002                6
 RTBSE| Simulation step         Convergence     Electron number  ETRS Iterations
 RTBSE|            3411     0.18141153E-007     0.10000000E+002                6
 RTBSE| Simulation step         Convergence     Electron number  ETRS Iterations
 RTBSE|            3412     0.21691427E-007     0.10000000E+002                6
 RTBSE| Simulation step         Convergence     Electron number  ETRS Iterations
 RTBSE|            3413     0.25276393E-007     0.10000000E+002                6
 RTBSE| Simulation step         Convergence     Electron number  ETRS Iterations
 RTBSE|            3414     0.28677129E-007     0.10000000E+002                6
 RTBSE| Simulation step         Convergence     Electron number  ETRS Iterations
 RTBSE|            3415     0.31707354E-007     0.10000000E+002                6
 RTBSE| Simulation step         Convergence     Electron number  ETRS Iterations
 RTBSE|            3416     0.34199252E-007     0.10000000E+002                6
 RTBSE| Simulation step         Convergence     Electron number  ETRS Iterations
 RTBSE|            3417     0.35953150E-007     0.10000000E+002                6
 RTBSE| Simulation step         Convergence     Electron number  ETRS Iterations
 RTBSE|            3418     0.36835276E-007     0.10000000E+002                6
 RTBSE| Simulation step         Convergence     Electron number  ETRS Iterations
 RTBSE|            3419     0.36860304E-007     0.10000000E+002                6
 RTBSE| Simulation step         Convergence     Electron number  ETRS Iterations
 RTBSE|            3420     0.37885560E-007     0.10000000E+002                6
 RTBSE| Simulation step         Convergence     Electron number  ETRS Iterations
 RTBSE|            3421     0.37926970E-007     0.10000000E+002                6
 RTBSE| Simulation step         Convergence     Electron number  ETRS Iterations
 RTBSE|            3422     0.37032912E-007     0.10000000E+002                6
 RTBSE| Simulation step         Convergence     Electron number  ETRS Iterations
 RTBSE|            3423     0.35291826E-007     0.10000000E+002                6
 RTBSE| Simulation step         Convergence     Electron number  ETRS Iterations
 RTBSE|            3424     0.32865524E-007     0.10000000E+002                6
 RTBSE| Simulation step         Convergence     Electron number  ETRS Iterations
 RTBSE|            3425     0.29910967E-007     0.10000000E+002                6
 RTBSE| Simulation step         Convergence     Electron number  ETRS Iterations
 RTBSE|            3426     0.26646817E-007     0.10000000E+002                6
 RTBSE| Simulation step         Convergence     Electron number  ETRS Iterations
 RTBSE|            3427     0.23249288E-007     0.10000000E+002                6
 RTBSE| Simulation step         Convergence     Electron number  ETRS Iterations
 RTBSE|            3428     0.19839674E-007     0.10000000E+002                6
 RTBSE| Simulation step         Convergence     Electron number  ETRS Iterations
 RTBSE|            3429     0.90454903E-007     0.10000000E+002                5
 RTBSE| Simulation step         Convergence     Electron number  ETRS Iterations
 RTBSE|            3430     0.79299800E-007     0.10000000E+002                5
 RTBSE| Simulation step         Convergence     Electron number  ETRS Iterations
 RTBSE|            3431     0.68409349E-007     0.10000000E+002                5
 RTBSE| Simulation step         Convergence     Electron number  ETRS Iterations
 RTBSE|            3432     0.58381622E-007     0.10000000E+002                5
 RTBSE| Simulation step         Convergence     Electron number  ETRS Iterations
 RTBSE|            3433     0.56867700E-007     0.10000000E+002                5
 RTBSE| Simulation step         Convergence     Electron number  ETRS Iterations
 RTBSE|            3434     0.82108089E-007     0.10000000E+002                5
 RTBSE| Simulation step         Convergence     Electron number  ETRS Iterations
 RTBSE|            3435     0.15515239E-007     0.10000000E+002                6
 RTBSE| Simulation step         Convergence     Electron number  ETRS Iterations
 RTBSE|            3436     0.19177556E-007     0.10000000E+002                6
 RTBSE| Simulation step         Convergence     Electron number  ETRS Iterations
 RTBSE|            3437     0.23078097E-007     0.10000000E+002                6
 RTBSE| Simulation step         Convergence     Electron number  ETRS Iterations
 RTBSE|            3438     0.27020146E-007     0.10000000E+002                6
 RTBSE| Simulation step         Convergence     Electron number  ETRS Iterations
 RTBSE|            3439     0.30873436E-007     0.10000000E+002                6
 RTBSE| Simulation step         Convergence     Electron number  ETRS Iterations
 RTBSE|            3440     0.34325385E-007     0.10000000E+002                6
 RTBSE| Simulation step         Convergence     Electron number  ETRS Iterations
 RTBSE|            3441     0.37199679E-007     0.10000000E+002                6
 RTBSE| Simulation step         Convergence     Electron number  ETRS Iterations
 RTBSE|            3442     0.39254304E-007     0.10000000E+002                6
 RTBSE| Simulation step         Convergence     Electron number  ETRS Iterations
 RTBSE|            3443     0.40386927E-007     0.10000000E+002                6
 RTBSE| Simulation step         Convergence     Electron number  ETRS Iterations
 RTBSE|            3444     0.41289414E-007     0.10000000E+002                6
 RTBSE| Simulation step         Convergence     Electron number  ETRS Iterations
 RTBSE|            3445     0.42308346E-007     0.10000000E+002                6
 RTBSE| Simulation step         Convergence     Electron number  ETRS Iterations
 RTBSE|            3446     0.42187301E-007     0.10000000E+002                6
 RTBSE| Simulation step         Convergence     Electron number  ETRS Iterations
 RTBSE|            3447     0.41008624E-007     0.10000000E+002                6
 RTBSE| Simulation step         Convergence     Electron number  ETRS Iterations
 RTBSE|            3448     0.38899447E-007     0.10000000E+002                6
 RTBSE| Simulation step         Convergence     Electron number  ETRS Iterations
 RTBSE|            3449     0.36051276E-007     0.10000000E+002                6
 RTBSE| Simulation step         Convergence     Electron number  ETRS Iterations
 RTBSE|            3450     0.32730086E-007     0.10000000E+002                6
 RTBSE| Simulation step         Convergence     Electron number  ETRS Iterations
 RTBSE|            3451     0.29124524E-007     0.10000000E+002                6
 RTBSE| Simulation step         Convergence     Electron number  ETRS Iterations
 RTBSE|            3452     0.25466287E-007     0.10000000E+002                6
 RTBSE| Simulation step         Convergence     Electron number  ETRS Iterations
 RTBSE|            3453     0.21936522E-007     0.10000000E+002                6
 RTBSE| Simulation step         Convergence     Electron number  ETRS Iterations
 RTBSE|            3454     0.98069315E-007     0.10000000E+002                5
 RTBSE| Simulation step         Convergence     Electron number  ETRS Iterations
 RTBSE|            3455     0.85515700E-007     0.10000000E+002                5
 RTBSE| Simulation step         Convergence     Electron number  ETRS Iterations
 RTBSE|            3456     0.74299924E-007     0.10000000E+002                5
 RTBSE| Simulation step         Convergence     Electron number  ETRS Iterations
 RTBSE|            3457     0.64450164E-007     0.10000000E+002                5
 RTBSE| Simulation step         Convergence     Electron number  ETRS Iterations
 RTBSE|            3458     0.55982911E-007     0.10000000E+002                5
 RTBSE| Simulation step         Convergence     Electron number  ETRS Iterations
 RTBSE|            3459     0.49482034E-007     0.10000000E+002                5
 RTBSE| Simulation step         Convergence     Electron number  ETRS Iterations
 RTBSE|            3460     0.73733879E-007     0.10000000E+002                5
 RTBSE| Simulation step         Convergence     Electron number  ETRS Iterations
 RTBSE|            3461     0.13931627E-007     0.10000000E+002                6
 RTBSE| Simulation step         Convergence     Electron number  ETRS Iterations
 RTBSE|            3462     0.17514904E-007     0.10000000E+002                6
 RTBSE| Simulation step         Convergence     Electron number  ETRS Iterations
 RTBSE|            3463     0.21265713E-007     0.10000000E+002                6
 RTBSE| Simulation step         Convergence     Electron number  ETRS Iterations
 RTBSE|            3464     0.25020228E-007     0.10000000E+002                6
 RTBSE| Simulation step         Convergence     Electron number  ETRS Iterations
 RTBSE|            3465     0.28582372E-007     0.10000000E+002                6
 RTBSE| Simulation step         Convergence     Electron number  ETRS Iterations
 RTBSE|            3466     0.31737444E-007     0.10000000E+002                6
 RTBSE| Simulation step         Convergence     Electron number  ETRS Iterations
 RTBSE|            3467     0.34295551E-007     0.10000000E+002                6
 RTBSE| Simulation step         Convergence     Electron number  ETRS Iterations
 RTBSE|            3468     0.36097984E-007     0.10000000E+002                6
 RTBSE| Simulation step         Convergence     Electron number  ETRS Iterations
 RTBSE|            3469     0.37002083E-007     0.10000000E+002                6
 RTBSE| Simulation step         Convergence     Electron number  ETRS Iterations
 RTBSE|            3470     0.36958356E-007     0.10000000E+002                6
 RTBSE| Simulation step         Convergence     Electron number  ETRS Iterations
 RTBSE|            3471     0.37903107E-007     0.10000000E+002                6
 RTBSE| Simulation step         Convergence     Electron number  ETRS Iterations
 RTBSE|            3472     0.37959104E-007     0.10000000E+002                6
 RTBSE| Simulation step         Convergence     Electron number  ETRS Iterations
 RTBSE|            3473     0.37080043E-007     0.10000000E+002                6
 RTBSE| Simulation step         Convergence     Electron number  ETRS Iterations
 RTBSE|            3474     0.35374010E-007     0.10000000E+002                6
 RTBSE| Simulation step         Convergence     Electron number  ETRS Iterations
 RTBSE|            3475     0.33022610E-007     0.10000000E+002                6
 RTBSE| Simulation step         Convergence     Electron number  ETRS Iterations
 RTBSE|            3476     0.30171073E-007     0.10000000E+002                6
 RTBSE| Simulation step         Convergence     Electron number  ETRS Iterations
 RTBSE|            3477     0.27017222E-007     0.10000000E+002                6
 RTBSE| Simulation step         Convergence     Electron number  ETRS Iterations
 RTBSE|            3478     0.23720731E-007     0.10000000E+002                6
 RTBSE| Simulation step         Convergence     Electron number  ETRS Iterations
 RTBSE|            3479     0.20431929E-007     0.10000000E+002                6
 RTBSE| Simulation step         Convergence     Electron number  ETRS Iterations
 RTBSE|            3480     0.92604262E-007     0.10000000E+002                5
 RTBSE| Simulation step         Convergence     Electron number  ETRS Iterations
 RTBSE|            3481     0.81847544E-007     0.10000000E+002                5
 RTBSE| Simulation step         Convergence     Electron number  ETRS Iterations
 RTBSE|            3482     0.71216098E-007     0.10000000E+002                5
 RTBSE| Simulation step         Convergence     Electron number  ETRS Iterations
 RTBSE|            3483     0.60769007E-007     0.10000000E+002                5
 RTBSE| Simulation step         Convergence     Electron number  ETRS Iterations
 RTBSE|            3484     0.53580439E-007     0.10000000E+002                5
 RTBSE| Simulation step         Convergence     Electron number  ETRS Iterations
 RTBSE|            3485     0.76782451E-007     0.10000000E+002                5
 RTBSE| Simulation step         Convergence     Electron number  ETRS Iterations
 RTBSE|            3486     0.14956429E-007     0.10000000E+002                6
 RTBSE| Simulation step         Convergence     Electron number  ETRS Iterations
 RTBSE|            3487     0.18669112E-007     0.10000000E+002                6
 RTBSE| Simulation step         Convergence     Electron number  ETRS Iterations
 RTBSE|            3488     0.22622974E-007     0.10000000E+002                6
 RTBSE| Simulation step         Convergence     Electron number  ETRS Iterations
 RTBSE|            3489     0.26620089E-007     0.10000000E+002                6
 RTBSE| Simulation step         Convergence     Electron number  ETRS Iterations
 RTBSE|            3490     0.30486764E-007     0.10000000E+002                6
 RTBSE| Simulation step         Convergence     Electron number  ETRS Iterations
 RTBSE|            3491     0.33974800E-007     0.10000000E+002                6
 RTBSE| Simulation step         Convergence     Electron number  ETRS Iterations
 RTBSE|            3492     0.36847677E-007     0.10000000E+002                6
 RTBSE| Simulation step         Convergence     Electron number  ETRS Iterations
 RTBSE|            3493     0.38929835E-007     0.10000000E+002                6
 RTBSE| Simulation step         Convergence     Electron number  ETRS Iterations
 RTBSE|            3494     0.40025190E-007     0.10000000E+002                6
 RTBSE| Simulation step         Convergence     Electron number  ETRS Iterations
 RTBSE|            3495     0.40697893E-007     0.10000000E+002                6
 RTBSE| Simulation step         Convergence     Electron number  ETRS Iterations
 RTBSE|            3496     0.41768866E-007     0.10000000E+002                6
 RTBSE| Simulation step         Convergence     Electron number  ETRS Iterations
 RTBSE|            3497     0.41723580E-007     0.10000000E+002                6
 RTBSE| Simulation step         Convergence     Electron number  ETRS Iterations
 RTBSE|            3498     0.40648585E-007     0.10000000E+002                6
 RTBSE| Simulation step         Convergence     Electron number  ETRS Iterations
 RTBSE|            3499     0.38690868E-007     0.10000000E+002                6
 RTBSE| Simulation step         Convergence     Electron number  ETRS Iterations
 RTBSE|            3500     0.36047633E-007     0.10000000E+002                6
 RTBSE| Simulation step         Convergence     Electron number  ETRS Iterations
 RTBSE|            3501     0.32938570E-007     0.10000000E+002                6
 RTBSE| Simulation step         Convergence     Electron number  ETRS Iterations
 RTBSE|            3502     0.29603860E-007     0.10000000E+002                6
 RTBSE| Simulation step         Convergence     Electron number  ETRS Iterations
 RTBSE|            3503     0.26220835E-007     0.10000000E+002                6
 RTBSE| Simulation step         Convergence     Electron number  ETRS Iterations
 RTBSE|            3504     0.22928288E-007     0.10000000E+002                6
 RTBSE| Simulation step         Convergence     Electron number  ETRS Iterations
 RTBSE|            3505     0.19796365E-007     0.10000000E+002                6
 RTBSE| Simulation step         Convergence     Electron number  ETRS Iterations
 RTBSE|            3506     0.91290459E-007     0.10000000E+002                5
 RTBSE| Simulation step         Convergence     Electron number  ETRS Iterations
 RTBSE|            3507     0.80410845E-007     0.10000000E+002                5
 RTBSE| Simulation step         Convergence     Electron number  ETRS Iterations
 RTBSE|            3508     0.70383844E-007     0.10000000E+002                5
 RTBSE| Simulation step         Convergence     Electron number  ETRS Iterations
 RTBSE|            3509     0.61242313E-007     0.10000000E+002                5
 RTBSE| Simulation step         Convergence     Electron number  ETRS Iterations
 RTBSE|            3510     0.53428118E-007     0.10000000E+002                5
 RTBSE| Simulation step         Convergence     Electron number  ETRS Iterations
 RTBSE|            3511     0.68077933E-007     0.10000000E+002                5
 RTBSE| Simulation step         Convergence     Electron number  ETRS Iterations
 RTBSE|            3512     0.97062130E-007     0.10000000E+002                5
 RTBSE| Simulation step         Convergence     Electron number  ETRS Iterations
 RTBSE|            3513     0.17349362E-007     0.10000000E+002                6
 RTBSE| Simulation step         Convergence     Electron number  ETRS Iterations
 RTBSE|            3514     0.21289991E-007     0.10000000E+002                6
 RTBSE| Simulation step         Convergence     Electron number  ETRS Iterations
 RTBSE|            3515     0.25187183E-007     0.10000000E+002                6
 RTBSE| Simulation step         Convergence     Electron number  ETRS Iterations
 RTBSE|            3516     0.28843698E-007     0.10000000E+002                6
 RTBSE| Simulation step         Convergence     Electron number  ETRS Iterations
 RTBSE|            3517     0.32072454E-007     0.10000000E+002                6
 RTBSE| Simulation step         Convergence     Electron number  ETRS Iterations
 RTBSE|            3518     0.34640150E-007     0.10000000E+002                6
 RTBSE| Simulation step         Convergence     Electron number  ETRS Iterations
 RTBSE|            3519     0.36424075E-007     0.10000000E+002                6
 RTBSE| Simulation step         Convergence     Electron number  ETRS Iterations
 RTBSE|            3520     0.37271073E-007     0.10000000E+002                6
 RTBSE| Simulation step         Convergence     Electron number  ETRS Iterations
 RTBSE|            3521     0.37131152E-007     0.10000000E+002                6
 RTBSE| Simulation step         Convergence     Electron number  ETRS Iterations
 RTBSE|            3522     0.37937709E-007     0.10000000E+002                6
 RTBSE| Simulation step         Convergence     Electron number  ETRS Iterations
 RTBSE|            3523     0.37924048E-007     0.10000000E+002                6
 RTBSE| Simulation step         Convergence     Electron number  ETRS Iterations
 RTBSE|            3524     0.36993727E-007     0.10000000E+002                6
 RTBSE| Simulation step         Convergence     Electron number  ETRS Iterations
 RTBSE|            3525     0.35249736E-007     0.10000000E+002                6
 RTBSE| Simulation step         Convergence     Electron number  ETRS Iterations
 RTBSE|            3526     0.32885312E-007     0.10000000E+002                6
 RTBSE| Simulation step         Convergence     Electron number  ETRS Iterations
 RTBSE|            3527     0.30066960E-007     0.10000000E+002                6
 RTBSE| Simulation step         Convergence     Electron number  ETRS Iterations
 RTBSE|            3528     0.26998009E-007     0.10000000E+002                6
 RTBSE| Simulation step         Convergence     Electron number  ETRS Iterations
 RTBSE|            3529     0.23832152E-007     0.10000000E+002                6
 RTBSE| Simulation step         Convergence     Electron number  ETRS Iterations
 RTBSE|            3530     0.20704056E-007     0.10000000E+002                6
 RTBSE| Simulation step         Convergence     Electron number  ETRS Iterations
 RTBSE|            3531     0.93552204E-007     0.10000000E+002                5
 RTBSE| Simulation step         Convergence     Electron number  ETRS Iterations
 RTBSE|            3532     0.83347457E-007     0.10000000E+002                5
 RTBSE| Simulation step         Convergence     Electron number  ETRS Iterations
 RTBSE|            3533     0.73277117E-007     0.10000000E+002                5
 RTBSE| Simulation step         Convergence     Electron number  ETRS Iterations
 RTBSE|            3534     0.63084459E-007     0.10000000E+002                5
 RTBSE| Simulation step         Convergence     Electron number  ETRS Iterations
 RTBSE|            3535     0.55284620E-007     0.10000000E+002                5
 RTBSE| Simulation step         Convergence     Electron number  ETRS Iterations
 RTBSE|            3536     0.70575931E-007     0.10000000E+002                5
 RTBSE| Simulation step         Convergence     Electron number  ETRS Iterations
 RTBSE|            3537     0.98435340E-007     0.10000000E+002                5
 RTBSE| Simulation step         Convergence     Electron number  ETRS Iterations
 RTBSE|            3538     0.18018219E-007     0.10000000E+002                6
 RTBSE| Simulation step         Convergence     Electron number  ETRS Iterations
 RTBSE|            3539     0.22035070E-007     0.10000000E+002                6
 RTBSE| Simulation step         Convergence     Electron number  ETRS Iterations
 RTBSE|            3540     0.26135590E-007     0.10000000E+002                6
 RTBSE| Simulation step         Convergence     Electron number  ETRS Iterations
 RTBSE|            3541     0.30053321E-007     0.10000000E+002                6
 RTBSE| Simulation step         Convergence     Electron number  ETRS Iterations
 RTBSE|            3542     0.33607134E-007     0.10000000E+002                6
 RTBSE| Simulation step         Convergence     Electron number  ETRS Iterations
 RTBSE|            3543     0.36506639E-007     0.10000000E+002                6
 RTBSE| Simulation step         Convergence     Electron number  ETRS Iterations
 RTBSE|            3544     0.38634263E-007     0.10000000E+002                6
 RTBSE| Simulation step         Convergence     Electron number  ETRS Iterations
 RTBSE|            3545     0.39805461E-007     0.10000000E+002                6
 RTBSE| Simulation step         Convergence     Electron number  ETRS Iterations
 RTBSE|            3546     0.40244991E-007     0.10000000E+002                6
 RTBSE| Simulation step         Convergence     Electron number  ETRS Iterations
 RTBSE|            3547     0.41337161E-007     0.10000000E+002                6
 RTBSE| Simulation step         Convergence     Electron number  ETRS Iterations
 RTBSE|            3548     0.41362154E-007     0.10000000E+002                6
 RTBSE| Simulation step         Convergence     Electron number  ETRS Iterations
 RTBSE|            3549     0.40386520E-007     0.10000000E+002                6
 RTBSE| Simulation step         Convergence     Electron number  ETRS Iterations
 RTBSE|            3550     0.38572430E-007     0.10000000E+002                6
 RTBSE| Simulation step         Convergence     Electron number  ETRS Iterations
 RTBSE|            3551     0.36126493E-007     0.10000000E+002                6
 RTBSE| Simulation step         Convergence     Electron number  ETRS Iterations
 RTBSE|            3552     0.33224911E-007     0.10000000E+002                6
 RTBSE| Simulation step         Convergence     Electron number  ETRS Iterations
 RTBSE|            3553     0.30100833E-007     0.10000000E+002                6
 RTBSE| Simulation step         Convergence     Electron number  ETRS Iterations
 RTBSE|            3554     0.26911956E-007     0.10000000E+002                6
 RTBSE| Simulation step         Convergence     Electron number  ETRS Iterations
 RTBSE|            3555     0.23798286E-007     0.10000000E+002                6
 RTBSE| Simulation step         Convergence     Electron number  ETRS Iterations
 RTBSE|            3556     0.20829543E-007     0.10000000E+002                6
 RTBSE| Simulation step         Convergence     Electron number  ETRS Iterations
 RTBSE|            3557     0.96199767E-007     0.10000000E+002                5
 RTBSE| Simulation step         Convergence     Electron number  ETRS Iterations
 RTBSE|            3558     0.85450769E-007     0.10000000E+002                5
 RTBSE| Simulation step         Convergence     Electron number  ETRS Iterations
 RTBSE|            3559     0.75130602E-007     0.10000000E+002                5
 RTBSE| Simulation step         Convergence     Electron number  ETRS Iterations
 RTBSE|            3560     0.65259383E-007     0.10000000E+002                5
 RTBSE| Simulation step         Convergence     Electron number  ETRS Iterations
 RTBSE|            3561     0.56450630E-007     0.10000000E+002                5
 RTBSE| Simulation step         Convergence     Electron number  ETRS Iterations
 RTBSE|            3562     0.64106564E-007     0.10000000E+002                5
 RTBSE| Simulation step         Convergence     Electron number  ETRS Iterations
 RTBSE|            3563     0.94419681E-007     0.10000000E+002                5
 RTBSE| Simulation step         Convergence     Electron number  ETRS Iterations
 RTBSE|            3564     0.17206415E-007     0.10000000E+002                6
 RTBSE| Simulation step         Convergence     Electron number  ETRS Iterations
 RTBSE|            3565     0.21246475E-007     0.10000000E+002                6
 RTBSE| Simulation step         Convergence     Electron number  ETRS Iterations
 RTBSE|            3566     0.25237974E-007     0.10000000E+002                6
 RTBSE| Simulation step         Convergence     Electron number  ETRS Iterations
 RTBSE|            3567     0.28904677E-007     0.10000000E+002                6
 RTBSE| Simulation step         Convergence     Electron number  ETRS Iterations
 RTBSE|            3568     0.32121403E-007     0.10000000E+002                6
 RTBSE| Simulation step         Convergence     Electron number  ETRS Iterations
 RTBSE|            3569     0.34637292E-007     0.10000000E+002                6
 RTBSE| Simulation step         Convergence     Electron number  ETRS Iterations
 RTBSE|            3570     0.36341109E-007     0.10000000E+002                6
 RTBSE| Simulation step         Convergence     Electron number  ETRS Iterations
 RTBSE|            3571     0.37095137E-007     0.10000000E+002                6
 RTBSE| Simulation step         Convergence     Electron number  ETRS Iterations
 RTBSE|            3572     0.36899378E-007     0.10000000E+002                6
 RTBSE| Simulation step         Convergence     Electron number  ETRS Iterations
 RTBSE|            3573     0.37522170E-007     0.10000000E+002                6
 RTBSE| Simulation step         Convergence     Electron number  ETRS Iterations
 RTBSE|            3574     0.37432095E-007     0.10000000E+002                6
 RTBSE| Simulation step         Convergence     Electron number  ETRS Iterations
 RTBSE|            3575     0.36449886E-007     0.10000000E+002                6
 RTBSE| Simulation step         Convergence     Electron number  ETRS Iterations
 RTBSE|            3576     0.34730620E-007     0.10000000E+002                6
 RTBSE| Simulation step         Convergence     Electron number  ETRS Iterations
 RTBSE|            3577     0.32439354E-007     0.10000000E+002                6
 RTBSE| Simulation step         Convergence     Electron number  ETRS Iterations
 RTBSE|            3578     0.29759276E-007     0.10000000E+002                6
 RTBSE| Simulation step         Convergence     Electron number  ETRS Iterations
 RTBSE|            3579     0.26880136E-007     0.10000000E+002                6
 RTBSE| Simulation step         Convergence     Electron number  ETRS Iterations
 RTBSE|            3580     0.23933565E-007     0.10000000E+002                6
 RTBSE| Simulation step         Convergence     Electron number  ETRS Iterations
 RTBSE|            3581     0.21006921E-007     0.10000000E+002                6
 RTBSE| Simulation step         Convergence     Electron number  ETRS Iterations
 RTBSE|            3582     0.95041424E-007     0.10000000E+002                5
 RTBSE| Simulation step         Convergence     Electron number  ETRS Iterations
 RTBSE|            3583     0.85398806E-007     0.10000000E+002                5
 RTBSE| Simulation step         Convergence     Electron number  ETRS Iterations
 RTBSE|            3584     0.76184514E-007     0.10000000E+002                5
 RTBSE| Simulation step         Convergence     Electron number  ETRS Iterations
 RTBSE|            3585     0.66652931E-007     0.10000000E+002                5
 RTBSE| Simulation step         Convergence     Electron number  ETRS Iterations
 RTBSE|            3586     0.58113831E-007     0.10000000E+002                5
 RTBSE| Simulation step         Convergence     Electron number  ETRS Iterations
 RTBSE|            3587     0.61897665E-007     0.10000000E+002                5
 RTBSE| Simulation step         Convergence     Electron number  ETRS Iterations
 RTBSE|            3588     0.90371149E-007     0.10000000E+002                5
 RTBSE| Simulation step         Convergence     Electron number  ETRS Iterations
 RTBSE|            3589     0.17123053E-007     0.10000000E+002                6
 RTBSE| Simulation step         Convergence     Electron number  ETRS Iterations
 RTBSE|            3590     0.21234466E-007     0.10000000E+002                6
 RTBSE| Simulation step         Convergence     Electron number  ETRS Iterations
 RTBSE|            3591     0.25431092E-007     0.10000000E+002                6
 RTBSE| Simulation step         Convergence     Electron number  ETRS Iterations
 RTBSE|            3592     0.29501685E-007     0.10000000E+002                6
 RTBSE| Simulation step         Convergence     Electron number  ETRS Iterations
 RTBSE|            3593     0.33154270E-007     0.10000000E+002                6
 RTBSE| Simulation step         Convergence     Electron number  ETRS Iterations
 RTBSE|            3594     0.36171267E-007     0.10000000E+002                6
 RTBSE| Simulation step         Convergence     Electron number  ETRS Iterations
 RTBSE|            3595     0.38372696E-007     0.10000000E+002                6
 RTBSE| Simulation step         Convergence     Electron number  ETRS Iterations
 RTBSE|            3596     0.39638165E-007     0.10000000E+002                6
 RTBSE| Simulation step         Convergence     Electron number  ETRS Iterations
 RTBSE|            3597     0.39872435E-007     0.10000000E+002                6
 RTBSE| Simulation step         Convergence     Electron number  ETRS Iterations
 RTBSE|            3598     0.41063239E-007     0.10000000E+002                6
 RTBSE| Simulation step         Convergence     Electron number  ETRS Iterations
 RTBSE|            3599     0.41216994E-007     0.10000000E+002                6
 RTBSE| Simulation step         Convergence     Electron number  ETRS Iterations
 RTBSE|            3600     0.40379904E-007     0.10000000E+002                6
 RTBSE| Simulation step         Convergence     Electron number  ETRS Iterations
 RTBSE|            3601     0.38733195E-007     0.10000000E+002                6
 RTBSE| Simulation step         Convergence     Electron number  ETRS Iterations
 RTBSE|            3602     0.36434367E-007     0.10000000E+002                6
 RTBSE| Simulation step         Convergence     Electron number  ETRS Iterations
 RTBSE|            3603     0.33715396E-007     0.10000000E+002                6
 RTBSE| Simulation step         Convergence     Electron number  ETRS Iterations
 RTBSE|            3604     0.30762964E-007     0.10000000E+002                6
 RTBSE| Simulation step         Convergence     Electron number  ETRS Iterations
 RTBSE|            3605     0.27742615E-007     0.10000000E+002                6
 RTBSE| Simulation step         Convergence     Electron number  ETRS Iterations
 RTBSE|            3606     0.24758119E-007     0.10000000E+002                6
 RTBSE| Simulation step         Convergence     Electron number  ETRS Iterations
 RTBSE|            3607     0.21863877E-007     0.10000000E+002                6
 RTBSE| Simulation step         Convergence     Electron number  ETRS Iterations
 RTBSE|            3608     0.19051381E-007     0.10000000E+002                6
 RTBSE| Simulation step         Convergence     Electron number  ETRS Iterations
 RTBSE|            3609     0.90178329E-007     0.10000000E+002                5
 RTBSE| Simulation step         Convergence     Electron number  ETRS Iterations
 RTBSE|            3610     0.79622032E-007     0.10000000E+002                5
 RTBSE| Simulation step         Convergence     Electron number  ETRS Iterations
 RTBSE|            3611     0.69191726E-007     0.10000000E+002                5
 RTBSE| Simulation step         Convergence     Electron number  ETRS Iterations
 RTBSE|            3612     0.59424126E-007     0.10000000E+002                5
 RTBSE| Simulation step         Convergence     Electron number  ETRS Iterations
 RTBSE|            3613     0.60274669E-007     0.10000000E+002                5
 RTBSE| Simulation step         Convergence     Electron number  ETRS Iterations
 RTBSE|            3614     0.91751118E-007     0.10000000E+002                5
 RTBSE| Simulation step         Convergence     Electron number  ETRS Iterations
 RTBSE|            3615     0.17039051E-007     0.10000000E+002                6
 RTBSE| Simulation step         Convergence     Electron number  ETRS Iterations
 RTBSE|            3616     0.21141037E-007     0.10000000E+002                6
 RTBSE| Simulation step         Convergence     Electron number  ETRS Iterations
 RTBSE|            3617     0.25178680E-007     0.10000000E+002                6
 RTBSE| Simulation step         Convergence     Electron number  ETRS Iterations
 RTBSE|            3618     0.28857143E-007     0.10000000E+002                6
 RTBSE| Simulation step         Convergence     Electron number  ETRS Iterations
 RTBSE|            3619     0.32025635E-007     0.10000000E+002                6
 RTBSE| Simulation step         Convergence     Electron number  ETRS Iterations
 RTBSE|            3620     0.34483436E-007     0.10000000E+002                6
 RTBSE| Simulation step         Convergence     Electron number  ETRS Iterations
 RTBSE|            3621     0.36112017E-007     0.10000000E+002                6
 RTBSE| Simulation step         Convergence     Electron number  ETRS Iterations
 RTBSE|            3622     0.36800078E-007     0.10000000E+002                6
 RTBSE| Simulation step         Convergence     Electron number  ETRS Iterations
 RTBSE|            3623     0.36551356E-007     0.10000000E+002                6
 RTBSE| Simulation step         Convergence     Electron number  ETRS Iterations
 RTBSE|            3624     0.36962975E-007     0.10000000E+002                6
 RTBSE| Simulation step         Convergence     Electron number  ETRS Iterations
 RTBSE|            3625     0.36835976E-007     0.10000000E+002                6
 RTBSE| Simulation step         Convergence     Electron number  ETRS Iterations
 RTBSE|            3626     0.35901481E-007     0.10000000E+002                6
 RTBSE| Simulation step         Convergence     Electron number  ETRS Iterations
 RTBSE|            3627     0.34277617E-007     0.10000000E+002                6
 RTBSE| Simulation step         Convergence     Electron number  ETRS Iterations
 RTBSE|            3628     0.32134371E-007     0.10000000E+002                6
 RTBSE| Simulation step         Convergence     Electron number  ETRS Iterations
 RTBSE|            3629     0.29656216E-007     0.10000000E+002                6
 RTBSE| Simulation step         Convergence     Electron number  ETRS Iterations
 RTBSE|            3630     0.27016528E-007     0.10000000E+002                6
 RTBSE| Simulation step         Convergence     Electron number  ETRS Iterations
 RTBSE|            3631     0.24333337E-007     0.10000000E+002                6
 RTBSE| Simulation step         Convergence     Electron number  ETRS Iterations
 RTBSE|            3632     0.21721299E-007     0.10000000E+002                6
 RTBSE| Simulation step         Convergence     Electron number  ETRS Iterations
 RTBSE|            3633     0.98848603E-007     0.10000000E+002                5
 RTBSE| Simulation step         Convergence     Electron number  ETRS Iterations
 RTBSE|            3634     0.89199722E-007     0.10000000E+002                5
 RTBSE| Simulation step         Convergence     Electron number  ETRS Iterations
 RTBSE|            3635     0.80601927E-007     0.10000000E+002                5
 RTBSE| Simulation step         Convergence     Electron number  ETRS Iterations
 RTBSE|            3636     0.71574425E-007     0.10000000E+002                5
 RTBSE| Simulation step         Convergence     Electron number  ETRS Iterations
 RTBSE|            3637     0.62585065E-007     0.10000000E+002                5
 RTBSE| Simulation step         Convergence     Electron number  ETRS Iterations
 RTBSE|            3638     0.55348114E-007     0.10000000E+002                5
 RTBSE| Simulation step         Convergence     Electron number  ETRS Iterations
 RTBSE|            3639     0.83297069E-007     0.10000000E+002                5
 RTBSE| Simulation step         Convergence     Electron number  ETRS Iterations
 RTBSE|            3640     0.16493161E-007     0.10000000E+002                6
 RTBSE| Simulation step         Convergence     Electron number  ETRS Iterations
 RTBSE|            3641     0.20771226E-007     0.10000000E+002                6
 RTBSE| Simulation step         Convergence     Electron number  ETRS Iterations
 RTBSE|            3642     0.25123744E-007     0.10000000E+002                6
 RTBSE| Simulation step         Convergence     Electron number  ETRS Iterations
 RTBSE|            3643     0.29354896E-007     0.10000000E+002                6
 RTBSE| Simulation step         Convergence     Electron number  ETRS Iterations
 RTBSE|            3644     0.33131540E-007     0.10000000E+002                6
 RTBSE| Simulation step         Convergence     Electron number  ETRS Iterations
 RTBSE|            3645     0.36251593E-007     0.10000000E+002                6
 RTBSE| Simulation step         Convergence     Electron number  ETRS Iterations
 RTBSE|            3646     0.38547586E-007     0.10000000E+002                6
 RTBSE| Simulation step         Convergence     Electron number  ETRS Iterations
 RTBSE|            3647     0.39863807E-007     0.10000000E+002                6
 RTBSE| Simulation step         Convergence     Electron number  ETRS Iterations
 RTBSE|            3648     0.40120841E-007     0.10000000E+002                6
 RTBSE| Simulation step         Convergence     Electron number  ETRS Iterations
 RTBSE|            3649     0.41172117E-007     0.10000000E+002                6
 RTBSE| Simulation step         Convergence     Electron number  ETRS Iterations
 RTBSE|            3650     0.41356574E-007     0.10000000E+002                6
 RTBSE| Simulation step         Convergence     Electron number  ETRS Iterations
 RTBSE|            3651     0.40554826E-007     0.10000000E+002                6
 RTBSE| Simulation step         Convergence     Electron number  ETRS Iterations
 RTBSE|            3652     0.38943733E-007     0.10000000E+002                6
 RTBSE| Simulation step         Convergence     Electron number  ETRS Iterations
 RTBSE|            3653     0.36700937E-007     0.10000000E+002                6
 RTBSE| Simulation step         Convergence     Electron number  ETRS Iterations
 RTBSE|            3654     0.34042522E-007     0.10000000E+002                6
 RTBSE| Simulation step         Convergence     Electron number  ETRS Iterations
 RTBSE|            3655     0.31154255E-007     0.10000000E+002                6
 RTBSE| Simulation step         Convergence     Electron number  ETRS Iterations
 RTBSE|            3656     0.28213220E-007     0.10000000E+002                6
 RTBSE| Simulation step         Convergence     Electron number  ETRS Iterations
 RTBSE|            3657     0.25307054E-007     0.10000000E+002                6
 RTBSE| Simulation step         Convergence     Electron number  ETRS Iterations
 RTBSE|            3658     0.22490052E-007     0.10000000E+002                6
 RTBSE| Simulation step         Convergence     Electron number  ETRS Iterations
 RTBSE|            3659     0.19737457E-007     0.10000000E+002                6
 RTBSE| Simulation step         Convergence     Electron number  ETRS Iterations
 RTBSE|            3660     0.93204140E-007     0.10000000E+002                5
 RTBSE| Simulation step         Convergence     Electron number  ETRS Iterations
 RTBSE|            3661     0.82503547E-007     0.10000000E+002                5
 RTBSE| Simulation step         Convergence     Electron number  ETRS Iterations
 RTBSE|            3662     0.71729350E-007     0.10000000E+002                5
 RTBSE| Simulation step         Convergence     Electron number  ETRS Iterations
 RTBSE|            3663     0.61406239E-007     0.10000000E+002                5
 RTBSE| Simulation step         Convergence     Electron number  ETRS Iterations
 RTBSE|            3664     0.56643200E-007     0.10000000E+002                5
 RTBSE| Simulation step         Convergence     Electron number  ETRS Iterations
 RTBSE|            3665     0.88673374E-007     0.10000000E+002                5
 RTBSE| Simulation step         Convergence     Electron number  ETRS Iterations
 RTBSE|            3666     0.16752865E-007     0.10000000E+002                6
 RTBSE| Simulation step         Convergence     Electron number  ETRS Iterations
 RTBSE|            3667     0.20916766E-007     0.10000000E+002                6
 RTBSE| Simulation step         Convergence     Electron number  ETRS Iterations
 RTBSE|            3668     0.24935281E-007     0.10000000E+002                6
 RTBSE| Simulation step         Convergence     Electron number  ETRS Iterations
 RTBSE|            3669     0.28601469E-007     0.10000000E+002                6
 RTBSE| Simulation step         Convergence     Electron number  ETRS Iterations
 RTBSE|            3670     0.31750911E-007     0.10000000E+002                6
 RTBSE| Simulation step         Convergence     Electron number  ETRS Iterations
 RTBSE|            3671     0.34190031E-007     0.10000000E+002                6
 RTBSE| Simulation step         Convergence     Electron number  ETRS Iterations
 RTBSE|            3672     0.35775207E-007     0.10000000E+002                6
 RTBSE| Simulation step         Convergence     Electron number  ETRS Iterations
 RTBSE|            3673     0.36453184E-007     0.10000000E+002                6
 RTBSE| Simulation step         Convergence     Electron number  ETRS Iterations
 RTBSE|            3674     0.36211601E-007     0.10000000E+002                6
 RTBSE| Simulation step         Convergence     Electron number  ETRS Iterations
 RTBSE|            3675     0.36391396E-007     0.10000000E+002                6
 RTBSE| Simulation step         Convergence     Electron number  ETRS Iterations
 RTBSE|            3676     0.36292757E-007     0.10000000E+002                6
 RTBSE| Simulation step         Convergence     Electron number  ETRS Iterations
 RTBSE|            3677     0.35412152E-007     0.10000000E+002                6
 RTBSE| Simulation step         Convergence     Electron number  ETRS Iterations
 RTBSE|            3678     0.33901274E-007     0.10000000E+002                6
 RTBSE| Simulation step         Convergence     Electron number  ETRS Iterations
 RTBSE|            3679     0.31920134E-007     0.10000000E+002                6
 RTBSE| Simulation step         Convergence     Electron number  ETRS Iterations
 RTBSE|            3680     0.29642607E-007     0.10000000E+002                6
 RTBSE| Simulation step         Convergence     Electron number  ETRS Iterations
 RTBSE|            3681     0.27230999E-007     0.10000000E+002                6
 RTBSE| Simulation step         Convergence     Electron number  ETRS Iterations
 RTBSE|            3682     0.24794327E-007     0.10000000E+002                6
 RTBSE| Simulation step         Convergence     Electron number  ETRS Iterations
 RTBSE|            3683     0.22391312E-007     0.10000000E+002                6
 RTBSE| Simulation step         Convergence     Electron number  ETRS Iterations
 RTBSE|            3684     0.20020568E-007     0.10000000E+002                6
 RTBSE| Simulation step         Convergence     Electron number  ETRS Iterations
 RTBSE|            3685     0.93311189E-007     0.10000000E+002                5
 RTBSE| Simulation step         Convergence     Electron number  ETRS Iterations
 RTBSE|            3686     0.84582240E-007     0.10000000E+002                5
 RTBSE| Simulation step         Convergence     Electron number  ETRS Iterations
 RTBSE|            3687     0.75895928E-007     0.10000000E+002                5
 RTBSE| Simulation step         Convergence     Electron number  ETRS Iterations
 RTBSE|            3688     0.66545686E-007     0.10000000E+002                5
 RTBSE| Simulation step         Convergence     Electron number  ETRS Iterations
 RTBSE|            3689     0.58238275E-007     0.10000000E+002                5
 RTBSE| Simulation step         Convergence     Electron number  ETRS Iterations
 RTBSE|            3690     0.77718140E-007     0.10000000E+002                5
 RTBSE| Simulation step         Convergence     Electron number  ETRS Iterations
 RTBSE|            3691     0.15950804E-007     0.10000000E+002                6
 RTBSE| Simulation step         Convergence     Electron number  ETRS Iterations
 RTBSE|            3692     0.20368293E-007     0.10000000E+002                6
 RTBSE| Simulation step         Convergence     Electron number  ETRS Iterations
 RTBSE|            3693     0.24861327E-007     0.10000000E+002                6
 RTBSE| Simulation step         Convergence     Electron number  ETRS Iterations
 RTBSE|            3694     0.29169764E-007     0.10000000E+002                6
 RTBSE| Simulation step         Convergence     Electron number  ETRS Iterations
 RTBSE|            3695     0.33008407E-007     0.10000000E+002                6
 RTBSE| Simulation step         Convergence     Electron number  ETRS Iterations
 RTBSE|            3696     0.36185422E-007     0.10000000E+002                6
 RTBSE| Simulation step         Convergence     Electron number  ETRS Iterations
 RTBSE|            3697     0.38469386E-007     0.10000000E+002                6
 RTBSE| Simulation step         Convergence     Electron number  ETRS Iterations
 RTBSE|            3698     0.39748650E-007     0.10000000E+002                6
 RTBSE| Simulation step         Convergence     Electron number  ETRS Iterations
 RTBSE|            3699     0.39990571E-007     0.10000000E+002                6
 RTBSE| Simulation step         Convergence     Electron number  ETRS Iterations
 RTBSE|            3700     0.40897662E-007     0.10000000E+002                6
 RTBSE| Simulation step         Convergence     Electron number  ETRS Iterations
 RTBSE|            3701     0.41071726E-007     0.10000000E+002                6
 RTBSE| Simulation step         Convergence     Electron number  ETRS Iterations
 RTBSE|            3702     0.40273080E-007     0.10000000E+002                6
 RTBSE| Simulation step         Convergence     Electron number  ETRS Iterations
 RTBSE|            3703     0.38687095E-007     0.10000000E+002                6
 RTBSE| Simulation step         Convergence     Electron number  ETRS Iterations
 RTBSE|            3704     0.36514648E-007     0.10000000E+002                6
 RTBSE| Simulation step         Convergence     Electron number  ETRS Iterations
 RTBSE|            3705     0.33983210E-007     0.10000000E+002                6
 RTBSE| Simulation step         Convergence     Electron number  ETRS Iterations
 RTBSE|            3706     0.31248667E-007     0.10000000E+002                6
 RTBSE| Simulation step         Convergence     Electron number  ETRS Iterations
 RTBSE|            3707     0.28479296E-007     0.10000000E+002                6
 RTBSE| Simulation step         Convergence     Electron number  ETRS Iterations
 RTBSE|            3708     0.25752964E-007     0.10000000E+002                6
 RTBSE| Simulation step         Convergence     Electron number  ETRS Iterations
 RTBSE|            3709     0.23091226E-007     0.10000000E+002                6
 RTBSE| Simulation step         Convergence     Electron number  ETRS Iterations
 RTBSE|            3710     0.20452631E-007     0.10000000E+002                6
 RTBSE| Simulation step         Convergence     Electron number  ETRS Iterations
 RTBSE|            3711     0.96490526E-007     0.10000000E+002                5
 RTBSE| Simulation step         Convergence     Electron number  ETRS Iterations
 RTBSE|            3712     0.86018155E-007     0.10000000E+002                5
 RTBSE| Simulation step         Convergence     Electron number  ETRS Iterations
 RTBSE|            3713     0.75196711E-007     0.10000000E+002                5
 RTBSE| Simulation step         Convergence     Electron number  ETRS Iterations
 RTBSE|            3714     0.64373804E-007     0.10000000E+002                5
 RTBSE| Simulation step         Convergence     Electron number  ETRS Iterations
 RTBSE|            3715     0.55081477E-007     0.10000000E+002                5
 RTBSE| Simulation step         Convergence     Electron number  ETRS Iterations
 RTBSE|            3716     0.83255372E-007     0.10000000E+002                5
 RTBSE| Simulation step         Convergence     Electron number  ETRS Iterations
 RTBSE|            3717     0.16169188E-007     0.10000000E+002                6
 RTBSE| Simulation step         Convergence     Electron number  ETRS Iterations
 RTBSE|            3718     0.20375503E-007     0.10000000E+002                6
 RTBSE| Simulation step         Convergence     Electron number  ETRS Iterations
 RTBSE|            3719     0.24460786E-007     0.10000000E+002                6
 RTBSE| Simulation step         Convergence     Electron number  ETRS Iterations
 RTBSE|            3720     0.28189839E-007     0.10000000E+002                6
 RTBSE| Simulation step         Convergence     Electron number  ETRS Iterations
 RTBSE|            3721     0.31357589E-007     0.10000000E+002                6
 RTBSE| Simulation step         Convergence     Electron number  ETRS Iterations
 RTBSE|            3722     0.33805924E-007     0.10000000E+002                6
 RTBSE| Simulation step         Convergence     Electron number  ETRS Iterations
 RTBSE|            3723     0.35415177E-007     0.10000000E+002                6
 RTBSE| Simulation step         Convergence     Electron number  ETRS Iterations
 RTBSE|            3724     0.36099208E-007     0.10000000E+002                6
 RTBSE| Simulation step         Convergence     Electron number  ETRS Iterations
 RTBSE|            3725     0.35908489E-007     0.10000000E+002                6
 RTBSE| Simulation step         Convergence     Electron number  ETRS Iterations
 RTBSE|            3726     0.35866349E-007     0.10000000E+002                6
 RTBSE| Simulation step         Convergence     Electron number  ETRS Iterations
 RTBSE|            3727     0.35837396E-007     0.10000000E+002                6
 RTBSE| Simulation step         Convergence     Electron number  ETRS Iterations
 RTBSE|            3728     0.35068823E-007     0.10000000E+002                6
 RTBSE| Simulation step         Convergence     Electron number  ETRS Iterations
 RTBSE|            3729     0.33711344E-007     0.10000000E+002                6
 RTBSE| Simulation step         Convergence     Electron number  ETRS Iterations
 RTBSE|            3730     0.31911109E-007     0.10000000E+002                6
 RTBSE| Simulation step         Convergence     Electron number  ETRS Iterations
 RTBSE|            3731     0.29862155E-007     0.10000000E+002                6
 RTBSE| Simulation step         Convergence     Electron number  ETRS Iterations
 RTBSE|            3732     0.27679222E-007     0.10000000E+002                6
 RTBSE| Simulation step         Convergence     Electron number  ETRS Iterations
 RTBSE|            3733     0.25465584E-007     0.10000000E+002                6
 RTBSE| Simulation step         Convergence     Electron number  ETRS Iterations
 RTBSE|            3734     0.23287274E-007     0.10000000E+002                6
 RTBSE| Simulation step         Convergence     Electron number  ETRS Iterations
 RTBSE|            3735     0.21093641E-007     0.10000000E+002                6
 RTBSE| Simulation step         Convergence     Electron number  ETRS Iterations
 RTBSE|            3736     0.98250266E-007     0.10000000E+002                5
 RTBSE| Simulation step         Convergence     Electron number  ETRS Iterations
 RTBSE|            3737     0.89655177E-007     0.10000000E+002                5
 RTBSE| Simulation step         Convergence     Electron number  ETRS Iterations
 RTBSE|            3738     0.80515950E-007     0.10000000E+002                5
 RTBSE| Simulation step         Convergence     Electron number  ETRS Iterations
 RTBSE|            3739     0.70903345E-007     0.10000000E+002                5
 RTBSE| Simulation step         Convergence     Electron number  ETRS Iterations
 RTBSE|            3740     0.61601255E-007     0.10000000E+002                5
 RTBSE| Simulation step         Convergence     Electron number  ETRS Iterations
 RTBSE|            3741     0.72423772E-007     0.10000000E+002                5
 RTBSE| Simulation step         Convergence     Electron number  ETRS Iterations
 RTBSE|            3742     0.15536073E-007     0.10000000E+002                6
 RTBSE| Simulation step         Convergence     Electron number  ETRS Iterations
 RTBSE|            3743     0.20081799E-007     0.10000000E+002                6
 RTBSE| Simulation step         Convergence     Electron number  ETRS Iterations
 RTBSE|            3744     0.24671424E-007     0.10000000E+002                6
 RTBSE| Simulation step         Convergence     Electron number  ETRS Iterations
 RTBSE|            3745     0.29026429E-007     0.10000000E+002                6
 RTBSE| Simulation step         Convergence     Electron number  ETRS Iterations
 RTBSE|            3746     0.32926887E-007     0.10000000E+002                6
 RTBSE| Simulation step         Convergence     Electron number  ETRS Iterations
 RTBSE|            3747     0.36094123E-007     0.10000000E+002                6
 RTBSE| Simulation step         Convergence     Electron number  ETRS Iterations
 RTBSE|            3748     0.38386913E-007     0.10000000E+002                6
 RTBSE| Simulation step         Convergence     Electron number  ETRS Iterations
 RTBSE|            3749     0.39643581E-007     0.10000000E+002                6
 RTBSE| Simulation step         Convergence     Electron number  ETRS Iterations
 RTBSE|            3750     0.39858915E-007     0.10000000E+002                6
 RTBSE| Simulation step         Convergence     Electron number  ETRS Iterations
 RTBSE|            3751     0.40563187E-007     0.10000000E+002                6
 RTBSE| Simulation step         Convergence     Electron number  ETRS Iterations
 RTBSE|            3752     0.40702181E-007     0.10000000E+002                6
 RTBSE| Simulation step         Convergence     Electron number  ETRS Iterations
 RTBSE|            3753     0.39930686E-007     0.10000000E+002                6
 RTBSE| Simulation step         Convergence     Electron number  ETRS Iterations
 RTBSE|            3754     0.38411136E-007     0.10000000E+002                6
 RTBSE| Simulation step         Convergence     Electron number  ETRS Iterations
 RTBSE|            3755     0.36351330E-007     0.10000000E+002                6
 RTBSE| Simulation step         Convergence     Electron number  ETRS Iterations
 RTBSE|            3756     0.33959128E-007     0.10000000E+002                6
 RTBSE| Simulation step         Convergence     Electron number  ETRS Iterations
 RTBSE|            3757     0.31407893E-007     0.10000000E+002                6
 RTBSE| Simulation step         Convergence     Electron number  ETRS Iterations
 RTBSE|            3758     0.28839256E-007     0.10000000E+002                6
 RTBSE| Simulation step         Convergence     Electron number  ETRS Iterations
 RTBSE|            3759     0.26314662E-007     0.10000000E+002                6
 RTBSE| Simulation step         Convergence     Electron number  ETRS Iterations
 RTBSE|            3760     0.23861422E-007     0.10000000E+002                6
 RTBSE| Simulation step         Convergence     Electron number  ETRS Iterations
 RTBSE|            3761     0.21398309E-007     0.10000000E+002                6
 RTBSE| Simulation step         Convergence     Electron number  ETRS Iterations
 RTBSE|            3762     0.18860724E-007     0.10000000E+002                6
 RTBSE| Simulation step         Convergence     Electron number  ETRS Iterations
 RTBSE|            3763     0.90868173E-007     0.10000000E+002                5
 RTBSE| Simulation step         Convergence     Electron number  ETRS Iterations
 RTBSE|            3764     0.79954925E-007     0.10000000E+002                5
 RTBSE| Simulation step         Convergence     Electron number  ETRS Iterations
 RTBSE|            3765     0.68603574E-007     0.10000000E+002                5
 RTBSE| Simulation step         Convergence     Electron number  ETRS Iterations
 RTBSE|            3766     0.58210546E-007     0.10000000E+002                5
 RTBSE| Simulation step         Convergence     Electron number  ETRS Iterations
 RTBSE|            3767     0.77492988E-007     0.10000000E+002                5
 RTBSE| Simulation step         Convergence     Electron number  ETRS Iterations
 RTBSE|            3768     0.15672513E-007     0.10000000E+002                6
 RTBSE| Simulation step         Convergence     Electron number  ETRS Iterations
 RTBSE|            3769     0.20022043E-007     0.10000000E+002                6
 RTBSE| Simulation step         Convergence     Electron number  ETRS Iterations
 RTBSE|            3770     0.24199604E-007     0.10000000E+002                6
 RTBSE| Simulation step         Convergence     Electron number  ETRS Iterations
 RTBSE|            3771     0.28010225E-007     0.10000000E+002                6
 RTBSE| Simulation step         Convergence     Electron number  ETRS Iterations
 RTBSE|            3772     0.31258854E-007     0.10000000E+002                6
 RTBSE| Simulation step         Convergence     Electron number  ETRS Iterations
 RTBSE|            3773     0.33743013E-007     0.10000000E+002                6
 RTBSE| Simulation step         Convergence     Electron number  ETRS Iterations
 RTBSE|            3774     0.35380041E-007     0.10000000E+002                6
 RTBSE| Simulation step         Convergence     Electron number  ETRS Iterations
 RTBSE|            3775     0.36112068E-007     0.10000000E+002                6
 RTBSE| Simulation step         Convergence     Electron number  ETRS Iterations
 RTBSE|            3776     0.35928873E-007     0.10000000E+002                6
 RTBSE| Simulation step         Convergence     Electron number  ETRS Iterations
 RTBSE|            3777     0.35702989E-007     0.10000000E+002                6
 RTBSE| Simulation step         Convergence     Electron number  ETRS Iterations
 RTBSE|            3778     0.35702738E-007     0.10000000E+002                6
 RTBSE| Simulation step         Convergence     Electron number  ETRS Iterations
 RTBSE|            3779     0.35002151E-007     0.10000000E+002                6
 RTBSE| Simulation step         Convergence     Electron number  ETRS Iterations
 RTBSE|            3780     0.33722562E-007     0.10000000E+002                6
 RTBSE| Simulation step         Convergence     Electron number  ETRS Iterations
 RTBSE|            3781     0.32061283E-007     0.10000000E+002                6
 RTBSE| Simulation step         Convergence     Electron number  ETRS Iterations
 RTBSE|            3782     0.30141884E-007     0.10000000E+002                6
 RTBSE| Simulation step         Convergence     Electron number  ETRS Iterations
 RTBSE|            3783     0.28110276E-007     0.10000000E+002                6
 RTBSE| Simulation step         Convergence     Electron number  ETRS Iterations
 RTBSE|            3784     0.26040923E-007     0.10000000E+002                6
 RTBSE| Simulation step         Convergence     Electron number  ETRS Iterations
 RTBSE|            3785     0.23981184E-007     0.10000000E+002                6
 RTBSE| Simulation step         Convergence     Electron number  ETRS Iterations
 RTBSE|            3786     0.21899732E-007     0.10000000E+002                6
 RTBSE| Simulation step         Convergence     Electron number  ETRS Iterations
 RTBSE|            3787     0.19718680E-007     0.10000000E+002                6
 RTBSE| Simulation step         Convergence     Electron number  ETRS Iterations
 RTBSE|            3788     0.93416673E-007     0.10000000E+002                5
 RTBSE| Simulation step         Convergence     Electron number  ETRS Iterations
 RTBSE|            3789     0.84079163E-007     0.10000000E+002                5
 RTBSE| Simulation step         Convergence     Electron number  ETRS Iterations
 RTBSE|            3790     0.73912772E-007     0.10000000E+002                5
 RTBSE| Simulation step         Convergence     Electron number  ETRS Iterations
 RTBSE|            3791     0.63803664E-007     0.10000000E+002                5
 RTBSE| Simulation step         Convergence     Electron number  ETRS Iterations
 RTBSE|            3792     0.69294848E-007     0.10000000E+002                5
 RTBSE| Simulation step         Convergence     Electron number  ETRS Iterations
 RTBSE|            3793     0.15263975E-007     0.10000000E+002                6
 RTBSE| Simulation step         Convergence     Electron number  ETRS Iterations
 RTBSE|            3794     0.19853159E-007     0.10000000E+002                6
 RTBSE| Simulation step         Convergence     Electron number  ETRS Iterations
 RTBSE|            3795     0.24473006E-007     0.10000000E+002                6
 RTBSE| Simulation step         Convergence     Electron number  ETRS Iterations
 RTBSE|            3796     0.28877656E-007     0.10000000E+002                6
 RTBSE| Simulation step         Convergence     Electron number  ETRS Iterations
 RTBSE|            3797     0.32758658E-007     0.10000000E+002                6
 RTBSE| Simulation step         Convergence     Electron number  ETRS Iterations
 RTBSE|            3798     0.35877566E-007     0.10000000E+002                6
 RTBSE| Simulation step         Convergence     Electron number  ETRS Iterations
 RTBSE|            3799     0.38073830E-007     0.10000000E+002                6
 RTBSE| Simulation step         Convergence     Electron number  ETRS Iterations
 RTBSE|            3800     0.39289332E-007     0.10000000E+002                6
 RTBSE| Simulation step         Convergence     Electron number  ETRS Iterations
 RTBSE|            3801     0.39483935E-007     0.10000000E+002                6
 RTBSE| Simulation step         Convergence     Electron number  ETRS Iterations
 RTBSE|            3802     0.39996643E-007     0.10000000E+002                6
 RTBSE| Simulation step         Convergence     Electron number  ETRS Iterations
 RTBSE|            3803     0.40132751E-007     0.10000000E+002                6
 RTBSE| Simulation step         Convergence     Electron number  ETRS Iterations
 RTBSE|            3804     0.39385078E-007     0.10000000E+002                6
 RTBSE| Simulation step         Convergence     Electron number  ETRS Iterations
 RTBSE|            3805     0.37965472E-007     0.10000000E+002                6
 RTBSE| Simulation step         Convergence     Electron number  ETRS Iterations
 RTBSE|            3806     0.36046219E-007     0.10000000E+002                6
 RTBSE| Simulation step         Convergence     Electron number  ETRS Iterations
 RTBSE|            3807     0.33862049E-007     0.10000000E+002                6
 RTBSE| Simulation step         Convergence     Electron number  ETRS Iterations
 RTBSE|            3808     0.31526383E-007     0.10000000E+002                6
 RTBSE| Simulation step         Convergence     Electron number  ETRS Iterations
 RTBSE|            3809     0.29193563E-007     0.10000000E+002                6
 RTBSE| Simulation step         Convergence     Electron number  ETRS Iterations
 RTBSE|            3810     0.26899685E-007     0.10000000E+002                6
 RTBSE| Simulation step         Convergence     Electron number  ETRS Iterations
 RTBSE|            3811     0.24643444E-007     0.10000000E+002                6
 RTBSE| Simulation step         Convergence     Electron number  ETRS Iterations
 RTBSE|            3812     0.22354528E-007     0.10000000E+002                6
 RTBSE| Simulation step         Convergence     Electron number  ETRS Iterations
 RTBSE|            3813     0.19925718E-007     0.10000000E+002                6
 RTBSE| Simulation step         Convergence     Electron number  ETRS Iterations
 RTBSE|            3814     0.95702551E-007     0.10000000E+002                5
 RTBSE| Simulation step         Convergence     Electron number  ETRS Iterations
 RTBSE|            3815     0.84662850E-007     0.10000000E+002                5
 RTBSE| Simulation step         Convergence     Electron number  ETRS Iterations
 RTBSE|            3816     0.72755786E-007     0.10000000E+002                5
 RTBSE| Simulation step         Convergence     Electron number  ETRS Iterations
 RTBSE|            3817     0.61293915E-007     0.10000000E+002                5
 RTBSE| Simulation step         Convergence     Electron number  ETRS Iterations
 RTBSE|            3818     0.72885139E-007     0.10000000E+002                5
 RTBSE| Simulation step         Convergence     Electron number  ETRS Iterations
 RTBSE|            3819     0.15299254E-007     0.10000000E+002                6
 RTBSE| Simulation step         Convergence     Electron number  ETRS Iterations
 RTBSE|            3820     0.19705751E-007     0.10000000E+002                6
 RTBSE| Simulation step         Convergence     Electron number  ETRS Iterations
 RTBSE|            3821     0.23996073E-007     0.10000000E+002                6
 RTBSE| Simulation step         Convergence     Electron number  ETRS Iterations
 RTBSE|            3822     0.27854790E-007     0.10000000E+002                6
 RTBSE| Simulation step         Convergence     Electron number  ETRS Iterations
 RTBSE|            3823     0.31120467E-007     0.10000000E+002                6
 RTBSE| Simulation step         Convergence     Electron number  ETRS Iterations
 RTBSE|            3824     0.33617655E-007     0.10000000E+002                6
 RTBSE| Simulation step         Convergence     Electron number  ETRS Iterations
 RTBSE|            3825     0.35234824E-007     0.10000000E+002                6
 RTBSE| Simulation step         Convergence     Electron number  ETRS Iterations
 RTBSE|            3826     0.35919150E-007     0.10000000E+002                6
 RTBSE| Simulation step         Convergence     Electron number  ETRS Iterations
 RTBSE|            3827     0.35745159E-007     0.10000000E+002                6
 RTBSE| Simulation step         Convergence     Electron number  ETRS Iterations
 RTBSE|            3828     0.35330685E-007     0.10000000E+002                6
 RTBSE| Simulation step         Convergence     Electron number  ETRS Iterations
 RTBSE|            3829     0.35355088E-007     0.10000000E+002                6
 RTBSE| Simulation step         Convergence     Electron number  ETRS Iterations
 RTBSE|            3830     0.34693121E-007     0.10000000E+002                6
 RTBSE| Simulation step         Convergence     Electron number  ETRS Iterations
 RTBSE|            3831     0.33485046E-007     0.10000000E+002                6
 RTBSE| Simulation step         Convergence     Electron number  ETRS Iterations
 RTBSE|            3832     0.31907221E-007     0.10000000E+002                6
 RTBSE| Simulation step         Convergence     Electron number  ETRS Iterations
 RTBSE|            3833     0.30123344E-007     0.10000000E+002                6
 RTBSE| Simulation step         Convergence     Electron number  ETRS Iterations
 RTBSE|            3834     0.28266748E-007     0.10000000E+002                6
 RTBSE| Simulation step         Convergence     Electron number  ETRS Iterations
 RTBSE|            3835     0.26377902E-007     0.10000000E+002                6
 RTBSE| Simulation step         Convergence     Electron number  ETRS Iterations
 RTBSE|            3836     0.24488364E-007     0.10000000E+002                6
 RTBSE| Simulation step         Convergence     Electron number  ETRS Iterations
 RTBSE|            3837     0.22554370E-007     0.10000000E+002                6
 RTBSE| Simulation step         Convergence     Electron number  ETRS Iterations
 RTBSE|            3838     0.20484518E-007     0.10000000E+002                6
 RTBSE| Simulation step         Convergence     Electron number  ETRS Iterations
 RTBSE|            3839     0.96790920E-007     0.10000000E+002                5
 RTBSE| Simulation step         Convergence     Electron number  ETRS Iterations
 RTBSE|            3840     0.87503089E-007     0.10000000E+002                5
 RTBSE| Simulation step         Convergence     Electron number  ETRS Iterations
 RTBSE|            3841     0.77082704E-007     0.10000000E+002                5
 RTBSE| Simulation step         Convergence     Electron number  ETRS Iterations
 RTBSE|            3842     0.66335685E-007     0.10000000E+002                5
 RTBSE| Simulation step         Convergence     Electron number  ETRS Iterations
 RTBSE|            3843     0.63874248E-007     0.10000000E+002                5
 RTBSE| Simulation step         Convergence     Electron number  ETRS Iterations
 RTBSE|            3844     0.99866326E-007     0.10000000E+002                5
 RTBSE| Simulation step         Convergence     Electron number  ETRS Iterations
 RTBSE|            3845     0.19331791E-007     0.10000000E+002                6
 RTBSE| Simulation step         Convergence     Electron number  ETRS Iterations
 RTBSE|            3846     0.24004956E-007     0.10000000E+002                6
 RTBSE| Simulation step         Convergence     Electron number  ETRS Iterations
 RTBSE|            3847     0.28402385E-007     0.10000000E+002                6
 RTBSE| Simulation step         Convergence     Electron number  ETRS Iterations
 RTBSE|            3848     0.32269895E-007     0.10000000E+002                6
 RTBSE| Simulation step         Convergence     Electron number  ETRS Iterations
 RTBSE|            3849     0.35403061E-007     0.10000000E+002                6
 RTBSE| Simulation step         Convergence     Electron number  ETRS Iterations
 RTBSE|            3850     0.37613485E-007     0.10000000E+002                6
 RTBSE| Simulation step         Convergence     Electron number  ETRS Iterations
 RTBSE|            3851     0.38795490E-007     0.10000000E+002                6
 RTBSE| Simulation step         Convergence     Electron number  ETRS Iterations
 RTBSE|            3852     0.39030670E-007     0.10000000E+002                6
 RTBSE| Simulation step         Convergence     Electron number  ETRS Iterations
 RTBSE|            3853     0.39298174E-007     0.10000000E+002                6
 RTBSE| Simulation step         Convergence     Electron number  ETRS Iterations
 RTBSE|            3854     0.39480742E-007     0.10000000E+002                6
 RTBSE| Simulation step         Convergence     Electron number  ETRS Iterations
 RTBSE|            3855     0.38851523E-007     0.10000000E+002                6
 RTBSE| Simulation step         Convergence     Electron number  ETRS Iterations
 RTBSE|            3856     0.37583874E-007     0.10000000E+002                6
 RTBSE| Simulation step         Convergence     Electron number  ETRS Iterations
 RTBSE|            3857     0.35887409E-007     0.10000000E+002                6
 RTBSE| Simulation step         Convergence     Electron number  ETRS Iterations
 RTBSE|            3858     0.33922056E-007     0.10000000E+002                6
 RTBSE| Simulation step         Convergence     Electron number  ETRS Iterations
 RTBSE|            3859     0.31856756E-007     0.10000000E+002                6
 RTBSE| Simulation step         Convergence     Electron number  ETRS Iterations
 RTBSE|            3860     0.29779531E-007     0.10000000E+002                6
 RTBSE| Simulation step         Convergence     Electron number  ETRS Iterations
 RTBSE|            3861     0.27733728E-007     0.10000000E+002                6
 RTBSE| Simulation step         Convergence     Electron number  ETRS Iterations
 RTBSE|            3862     0.25697447E-007     0.10000000E+002                6
 RTBSE| Simulation step         Convergence     Electron number  ETRS Iterations
 RTBSE|            3863     0.23561622E-007     0.10000000E+002                6
 RTBSE| Simulation step         Convergence     Electron number  ETRS Iterations
 RTBSE|            3864     0.21236470E-007     0.10000000E+002                6
 RTBSE| Simulation step         Convergence     Electron number  ETRS Iterations
 RTBSE|            3865     0.18562156E-007     0.10000000E+002                6
 RTBSE| Simulation step         Convergence     Electron number  ETRS Iterations
 RTBSE|            3866     0.90188813E-007     0.10000000E+002                5
 RTBSE| Simulation step         Convergence     Electron number  ETRS Iterations
 RTBSE|            3867     0.77641377E-007     0.10000000E+002                5
 RTBSE| Simulation step         Convergence     Electron number  ETRS Iterations
 RTBSE|            3868     0.65026037E-007     0.10000000E+002                5
 RTBSE| Simulation step         Convergence     Electron number  ETRS Iterations
 RTBSE|            3869     0.68074080E-007     0.10000000E+002                5
 RTBSE| Simulation step         Convergence     Electron number  ETRS Iterations
 RTBSE|            3870     0.14917705E-007     0.10000000E+002                6
 RTBSE| Simulation step         Convergence     Electron number  ETRS Iterations
 RTBSE|            3871     0.19467576E-007     0.10000000E+002                6
 RTBSE| Simulation step         Convergence     Electron number  ETRS Iterations
 RTBSE|            3872     0.23832997E-007     0.10000000E+002                6
 RTBSE| Simulation step         Convergence     Electron number  ETRS Iterations
 RTBSE|            3873     0.27779115E-007     0.10000000E+002                6
 RTBSE| Simulation step         Convergence     Electron number  ETRS Iterations
 RTBSE|            3874     0.31086480E-007     0.10000000E+002                6
 RTBSE| Simulation step         Convergence     Electron number  ETRS Iterations
 RTBSE|            3875     0.33581775E-007     0.10000000E+002                6
 RTBSE| Simulation step         Convergence     Electron number  ETRS Iterations
 RTBSE|            3876     0.35170604E-007     0.10000000E+002                6
 RTBSE| Simulation step         Convergence     Electron number  ETRS Iterations
 RTBSE|            3877     0.35872738E-007     0.10000000E+002                6
 RTBSE| Simulation step         Convergence     Electron number  ETRS Iterations
 RTBSE|            3878     0.35684196E-007     0.10000000E+002                6
 RTBSE| Simulation step         Convergence     Electron number  ETRS Iterations
 RTBSE|            3879     0.35103559E-007     0.10000000E+002                6
 RTBSE| Simulation step         Convergence     Electron number  ETRS Iterations
 RTBSE|            3880     0.35112291E-007     0.10000000E+002                6
 RTBSE| Simulation step         Convergence     Electron number  ETRS Iterations
 RTBSE|            3881     0.34457853E-007     0.10000000E+002                6
 RTBSE| Simulation step         Convergence     Electron number  ETRS Iterations
 RTBSE|            3882     0.33312913E-007     0.10000000E+002                6
 RTBSE| Simulation step         Convergence     Electron number  ETRS Iterations
 RTBSE|            3883     0.31842081E-007     0.10000000E+002                6
 RTBSE| Simulation step         Convergence     Electron number  ETRS Iterations
 RTBSE|            3884     0.30182499E-007     0.10000000E+002                6
 RTBSE| Simulation step         Convergence     Electron number  ETRS Iterations
 RTBSE|            3885     0.28457787E-007     0.10000000E+002                6
 RTBSE| Simulation step         Convergence     Electron number  ETRS Iterations
 RTBSE|            3886     0.26727262E-007     0.10000000E+002                6
 RTBSE| Simulation step         Convergence     Electron number  ETRS Iterations
 RTBSE|            3887     0.24979769E-007     0.10000000E+002                6
 RTBSE| Simulation step         Convergence     Electron number  ETRS Iterations
 RTBSE|            3888     0.23190158E-007     0.10000000E+002                6
 RTBSE| Simulation step         Convergence     Electron number  ETRS Iterations
 RTBSE|            3889     0.21244147E-007     0.10000000E+002                6
 RTBSE| Simulation step         Convergence     Electron number  ETRS Iterations
 RTBSE|            3890     0.19004178E-007     0.10000000E+002                6
 RTBSE| Simulation step         Convergence     Electron number  ETRS Iterations
 RTBSE|            3891     0.91011217E-007     0.10000000E+002                5
 RTBSE| Simulation step         Convergence     Electron number  ETRS Iterations
 RTBSE|            3892     0.80437222E-007     0.10000000E+002                5
 RTBSE| Simulation step         Convergence     Electron number  ETRS Iterations
 RTBSE|            3893     0.69186369E-007     0.10000000E+002                5
 RTBSE| Simulation step         Convergence     Electron number  ETRS Iterations
 RTBSE|            3894     0.59352979E-007     0.10000000E+002                5
 RTBSE| Simulation step         Convergence     Electron number  ETRS Iterations
 RTBSE|            3895     0.94692056E-007     0.10000000E+002                5
 RTBSE| Simulation step         Convergence     Electron number  ETRS Iterations
 RTBSE|            3896     0.18758701E-007     0.10000000E+002                6
 RTBSE| Simulation step         Convergence     Electron number  ETRS Iterations
 RTBSE|            3897     0.23461324E-007     0.10000000E+002                6
 RTBSE| Simulation step         Convergence     Electron number  ETRS Iterations
 RTBSE|            3898     0.27947345E-007     0.10000000E+002                6
 RTBSE| Simulation step         Convergence     Electron number  ETRS Iterations
 RTBSE|            3899     0.31890033E-007     0.10000000E+002                6
 RTBSE| Simulation step         Convergence     Electron number  ETRS Iterations
 RTBSE|            3900     0.35029912E-007     0.10000000E+002                6
 RTBSE| Simulation step         Convergence     Electron number  ETRS Iterations
 RTBSE|            3901     0.37279476E-007     0.10000000E+002                6
 RTBSE| Simulation step         Convergence     Electron number  ETRS Iterations
 RTBSE|            3902     0.38552848E-007     0.10000000E+002                6
 RTBSE| Simulation step         Convergence     Electron number  ETRS Iterations
 RTBSE|            3903     0.38810404E-007     0.10000000E+002                6
 RTBSE| Simulation step         Convergence     Electron number  ETRS Iterations
 RTBSE|            3904     0.38866721E-007     0.10000000E+002                6
 RTBSE| Simulation step         Convergence     Electron number  ETRS Iterations
 RTBSE|            3905     0.39142559E-007     0.10000000E+002                6
 RTBSE| Simulation step         Convergence     Electron number  ETRS Iterations
 RTBSE|            3906     0.38647318E-007     0.10000000E+002                6
 RTBSE| Simulation step         Convergence     Electron number  ETRS Iterations
 RTBSE|            3907     0.37541706E-007     0.10000000E+002                6
 RTBSE| Simulation step         Convergence     Electron number  ETRS Iterations
 RTBSE|            3908     0.36033974E-007     0.10000000E+002                6
 RTBSE| Simulation step         Convergence     Electron number  ETRS Iterations
 RTBSE|            3909     0.34289677E-007     0.10000000E+002                6
 RTBSE| Simulation step         Convergence     Electron number  ETRS Iterations
 RTBSE|            3910     0.32443692E-007     0.10000000E+002                6
 RTBSE| Simulation step         Convergence     Electron number  ETRS Iterations
 RTBSE|            3911     0.30570474E-007     0.10000000E+002                6
 RTBSE| Simulation step         Convergence     Electron number  ETRS Iterations
 RTBSE|            3912     0.28673742E-007     0.10000000E+002                6
 RTBSE| Simulation step         Convergence     Electron number  ETRS Iterations
 RTBSE|            3913     0.26730434E-007     0.10000000E+002                6
 RTBSE| Simulation step         Convergence     Electron number  ETRS Iterations
 RTBSE|            3914     0.24659965E-007     0.10000000E+002                6
 RTBSE| Simulation step         Convergence     Electron number  ETRS Iterations
 RTBSE|            3915     0.22330542E-007     0.10000000E+002                6
 RTBSE| Simulation step         Convergence     Electron number  ETRS Iterations
 RTBSE|            3916     0.19614257E-007     0.10000000E+002                6
 RTBSE| Simulation step         Convergence     Electron number  ETRS Iterations
 RTBSE|            3917     0.94575590E-007     0.10000000E+002                5
 RTBSE| Simulation step         Convergence     Electron number  ETRS Iterations
 RTBSE|            3918     0.81211283E-007     0.10000000E+002                5
 RTBSE| Simulation step         Convergence     Electron number  ETRS Iterations
 RTBSE|            3919     0.67639275E-007     0.10000000E+002                5
 RTBSE| Simulation step         Convergence     Electron number  ETRS Iterations
 RTBSE|            3920     0.65936979E-007     0.10000000E+002                5
 RTBSE| Simulation step         Convergence     Electron number  ETRS Iterations
 RTBSE|            3921     0.14813436E-007     0.10000000E+002                6
 RTBSE| Simulation step         Convergence     Electron number  ETRS Iterations
 RTBSE|            3922     0.19450708E-007     0.10000000E+002                6
 RTBSE| Simulation step         Convergence     Electron number  ETRS Iterations
 RTBSE|            3923     0.23867416E-007     0.10000000E+002                6
 RTBSE| Simulation step         Convergence     Electron number  ETRS Iterations
 RTBSE|            3924     0.27801362E-007     0.10000000E+002                6
 RTBSE| Simulation step         Convergence     Electron number  ETRS Iterations
 RTBSE|            3925     0.31062518E-007     0.10000000E+002                6
 RTBSE| Simulation step         Convergence     Electron number  ETRS Iterations
 RTBSE|            3926     0.33498653E-007     0.10000000E+002                6
 RTBSE| Simulation step         Convergence     Electron number  ETRS Iterations
 RTBSE|            3927     0.35058903E-007     0.10000000E+002                6
 RTBSE| Simulation step         Convergence     Electron number  ETRS Iterations
 RTBSE|            3928     0.35656111E-007     0.10000000E+002                6
 RTBSE| Simulation step         Convergence     Electron number  ETRS Iterations
 RTBSE|            3929     0.35374470E-007     0.10000000E+002                6
 RTBSE| Simulation step         Convergence     Electron number  ETRS Iterations
 RTBSE|            3930     0.34646276E-007     0.10000000E+002                6
 RTBSE| Simulation step         Convergence     Electron number  ETRS Iterations
 RTBSE|            3931     0.34609459E-007     0.10000000E+002                6
 RTBSE| Simulation step         Convergence     Electron number  ETRS Iterations
 RTBSE|            3932     0.33958508E-007     0.10000000E+002                6
 RTBSE| Simulation step         Convergence     Electron number  ETRS Iterations
 RTBSE|            3933     0.32857683E-007     0.10000000E+002                6
 RTBSE| Simulation step         Convergence     Electron number  ETRS Iterations
 RTBSE|            3934     0.31462528E-007     0.10000000E+002                6
 RTBSE| Simulation step         Convergence     Electron number  ETRS Iterations
 RTBSE|            3935     0.29929292E-007     0.10000000E+002                6
 RTBSE| Simulation step         Convergence     Electron number  ETRS Iterations
 RTBSE|            3936     0.28361103E-007     0.10000000E+002                6
 RTBSE| Simulation step         Convergence     Electron number  ETRS Iterations
 RTBSE|            3937     0.26840425E-007     0.10000000E+002                6
 RTBSE| Simulation step         Convergence     Electron number  ETRS Iterations
 RTBSE|            3938     0.25303841E-007     0.10000000E+002                6
 RTBSE| Simulation step         Convergence     Electron number  ETRS Iterations
 RTBSE|            3939     0.23700811E-007     0.10000000E+002                6
 RTBSE| Simulation step         Convergence     Electron number  ETRS Iterations
 RTBSE|            3940     0.21912287E-007     0.10000000E+002                6
 RTBSE| Simulation step         Convergence     Electron number  ETRS Iterations
 RTBSE|            3941     0.19811447E-007     0.10000000E+002                6
 RTBSE| Simulation step         Convergence     Electron number  ETRS Iterations
 RTBSE|            3942     0.94498354E-007     0.10000000E+002                5
 RTBSE| Simulation step         Convergence     Electron number  ETRS Iterations
 RTBSE|            3943     0.84026336E-007     0.10000000E+002                5
 RTBSE| Simulation step         Convergence     Electron number  ETRS Iterations
 RTBSE|            3944     0.72379746E-007     0.10000000E+002                5
 RTBSE| Simulation step         Convergence     Electron number  ETRS Iterations
 RTBSE|            3945     0.61521349E-007     0.10000000E+002                5
 RTBSE| Simulation step         Convergence     Electron number  ETRS Iterations
 RTBSE|            3946     0.89037164E-007     0.10000000E+002                5
 RTBSE| Simulation step         Convergence     Electron number  ETRS Iterations
 RTBSE|            3947     0.18124805E-007     0.10000000E+002                6
 RTBSE| Simulation step         Convergence     Electron number  ETRS Iterations
 RTBSE|            3948     0.22908418E-007     0.10000000E+002                6
 RTBSE| Simulation step         Convergence     Electron number  ETRS Iterations
 RTBSE|            3949     0.27433408E-007     0.10000000E+002                6
 RTBSE| Simulation step         Convergence     Electron number  ETRS Iterations
 RTBSE|            3950     0.31394607E-007     0.10000000E+002                6
 RTBSE| Simulation step         Convergence     Electron number  ETRS Iterations
 RTBSE|            3951     0.34590470E-007     0.10000000E+002                6
 RTBSE| Simulation step         Convergence     Electron number  ETRS Iterations
 RTBSE|            3952     0.36870633E-007     0.10000000E+002                6
 RTBSE| Simulation step         Convergence     Electron number  ETRS Iterations
 RTBSE|            3953     0.38179019E-007     0.10000000E+002                6
 RTBSE| Simulation step         Convergence     Electron number  ETRS Iterations
 RTBSE|            3954     0.38524363E-007     0.10000000E+002                6
 RTBSE| Simulation step         Convergence     Electron number  ETRS Iterations
 RTBSE|            3955     0.38335715E-007     0.10000000E+002                6
 RTBSE| Simulation step         Convergence     Electron number  ETRS Iterations
 RTBSE|            3956     0.38719768E-007     0.10000000E+002                6
 RTBSE| Simulation step         Convergence     Electron number  ETRS Iterations
 RTBSE|            3957     0.38343953E-007     0.10000000E+002                6
 RTBSE| Simulation step         Convergence     Electron number  ETRS Iterations
 RTBSE|            3958     0.37405871E-007     0.10000000E+002                6
 RTBSE| Simulation step         Convergence     Electron number  ETRS Iterations
 RTBSE|            3959     0.36074275E-007     0.10000000E+002                6
 RTBSE| Simulation step         Convergence     Electron number  ETRS Iterations
 RTBSE|            3960     0.34514645E-007     0.10000000E+002                6
 RTBSE| Simulation step         Convergence     Electron number  ETRS Iterations
 RTBSE|            3961     0.32854061E-007     0.10000000E+002                6
 RTBSE| Simulation step         Convergence     Electron number  ETRS Iterations
 RTBSE|            3962     0.31158988E-007     0.10000000E+002                6
 RTBSE| Simulation step         Convergence     Electron number  ETRS Iterations
 RTBSE|            3963     0.29430378E-007     0.10000000E+002                6
 RTBSE| Simulation step         Convergence     Electron number  ETRS Iterations
 RTBSE|            3964     0.27625288E-007     0.10000000E+002                6
 RTBSE| Simulation step         Convergence     Electron number  ETRS Iterations
 RTBSE|            3965     0.25634809E-007     0.10000000E+002                6
 RTBSE| Simulation step         Convergence     Electron number  ETRS Iterations
 RTBSE|            3966     0.23316398E-007     0.10000000E+002                6
 RTBSE| Simulation step         Convergence     Electron number  ETRS Iterations
 RTBSE|            3967     0.20567355E-007     0.10000000E+002                6
 RTBSE| Simulation step         Convergence     Electron number  ETRS Iterations
 RTBSE|            3968     0.98472676E-007     0.10000000E+002                5
 RTBSE| Simulation step         Convergence     Electron number  ETRS Iterations
 RTBSE|            3969     0.84518298E-007     0.10000000E+002                5
 RTBSE| Simulation step         Convergence     Electron number  ETRS Iterations
 RTBSE|            3970     0.70092902E-007     0.10000000E+002                5
 RTBSE| Simulation step         Convergence     Electron number  ETRS Iterations
 RTBSE|            3971     0.62860059E-007     0.10000000E+002                5
 RTBSE| Simulation step         Convergence     Electron number  ETRS Iterations
 RTBSE|            3972     0.14591489E-007     0.10000000E+002                6
 RTBSE| Simulation step         Convergence     Electron number  ETRS Iterations
 RTBSE|            3973     0.19228052E-007     0.10000000E+002                6
 RTBSE| Simulation step         Convergence     Electron number  ETRS Iterations
 RTBSE|            3974     0.23665325E-007     0.10000000E+002                6
 RTBSE| Simulation step         Convergence     Electron number  ETRS Iterations
 RTBSE|            3975     0.27578337E-007     0.10000000E+002                6
 RTBSE| Simulation step         Convergence     Electron number  ETRS Iterations
 RTBSE|            3976     0.30804378E-007     0.10000000E+002                6
 RTBSE| Simulation step         Convergence     Electron number  ETRS Iterations
 RTBSE|            3977     0.33191571E-007     0.10000000E+002                6
 RTBSE| Simulation step         Convergence     Electron number  ETRS Iterations
 RTBSE|            3978     0.34650954E-007     0.10000000E+002                6
 RTBSE| Simulation step         Convergence     Electron number  ETRS Iterations
 RTBSE|            3979     0.35187866E-007     0.10000000E+002                6
 RTBSE| Simulation step         Convergence     Electron number  ETRS Iterations
 RTBSE|            3980     0.34903971E-007     0.10000000E+002                6
 RTBSE| Simulation step         Convergence     Electron number  ETRS Iterations
 RTBSE|            3981     0.33973528E-007     0.10000000E+002                6
 RTBSE| Simulation step         Convergence     Electron number  ETRS Iterations
 RTBSE|            3982     0.33916856E-007     0.10000000E+002                6
 RTBSE| Simulation step         Convergence     Electron number  ETRS Iterations
 RTBSE|            3983     0.33283769E-007     0.10000000E+002                6
 RTBSE| Simulation step         Convergence     Electron number  ETRS Iterations
 RTBSE|            3984     0.32265713E-007     0.10000000E+002                6
 RTBSE| Simulation step         Convergence     Electron number  ETRS Iterations
 RTBSE|            3985     0.31022730E-007     0.10000000E+002                6
 RTBSE| Simulation step         Convergence     Electron number  ETRS Iterations
 RTBSE|            3986     0.29691012E-007     0.10000000E+002                6
 RTBSE| Simulation step         Convergence     Electron number  ETRS Iterations
 RTBSE|            3987     0.28357784E-007     0.10000000E+002                6
 RTBSE| Simulation step         Convergence     Electron number  ETRS Iterations
 RTBSE|            3988     0.27064673E-007     0.10000000E+002                6
 RTBSE| Simulation step         Convergence     Electron number  ETRS Iterations
 RTBSE|            3989     0.25796235E-007     0.10000000E+002                6
 RTBSE| Simulation step         Convergence     Electron number  ETRS Iterations
 RTBSE|            3990     0.24438435E-007     0.10000000E+002                6
 RTBSE| Simulation step         Convergence     Electron number  ETRS Iterations
 RTBSE|            3991     0.22887026E-007     0.10000000E+002                6
 RTBSE| Simulation step         Convergence     Electron number  ETRS Iterations
 RTBSE|            3992     0.20950992E-007     0.10000000E+002                6
 RTBSE| Simulation step         Convergence     Electron number  ETRS Iterations
 RTBSE|            3993     0.99551560E-007     0.10000000E+002                5
 RTBSE| Simulation step         Convergence     Electron number  ETRS Iterations
 RTBSE|            3994     0.89036913E-007     0.10000000E+002                5
 RTBSE| Simulation step         Convergence     Electron number  ETRS Iterations
 RTBSE|            3995     0.76937356E-007     0.10000000E+002                5
 RTBSE| Simulation step         Convergence     Electron number  ETRS Iterations
 RTBSE|            3996     0.64995353E-007     0.10000000E+002                5
 RTBSE| Simulation step         Convergence     Electron number  ETRS Iterations
 RTBSE|            3997     0.82107011E-007     0.10000000E+002                5
 RTBSE| Simulation step         Convergence     Electron number  ETRS Iterations
 RTBSE|            3998     0.17445701E-007     0.10000000E+002                6
 RTBSE| Simulation step         Convergence     Electron number  ETRS Iterations
 RTBSE|            3999     0.22321154E-007     0.10000000E+002                6
 RTBSE| Simulation step         Convergence     Electron number  ETRS Iterations
 RTBSE|            4000     0.26951408E-007     0.10000000E+002                6
 RTBSE| Simulation step         Convergence     Electron number  ETRS Iterations
 RTBSE|            4001     0.31012556E-007     0.10000000E+002                6
 RTBSE| Simulation step         Convergence     Electron number  ETRS Iterations
 RTBSE|            4002     0.34295917E-007     0.10000000E+002                6
 RTBSE| Simulation step         Convergence     Electron number  ETRS Iterations
 RTBSE|            4003     0.36690028E-007     0.10000000E+002                6
 RTBSE| Simulation step         Convergence     Electron number  ETRS Iterations
 RTBSE|            4004     0.38075563E-007     0.10000000E+002                6
 RTBSE| Simulation step         Convergence     Electron number  ETRS Iterations
 RTBSE|            4005     0.38497454E-007     0.10000000E+002                6
 RTBSE| Simulation step         Convergence     Electron number  ETRS Iterations
 RTBSE|            4006     0.38112450E-007     0.10000000E+002                6
 RTBSE| Simulation step         Convergence     Electron number  ETRS Iterations
 RTBSE|            4007     0.38599423E-007     0.10000000E+002                6
 RTBSE| Simulation step         Convergence     Electron number  ETRS Iterations
 RTBSE|            4008     0.38340702E-007     0.10000000E+002                6
 RTBSE| Simulation step         Convergence     Electron number  ETRS Iterations
 RTBSE|            4009     0.37524539E-007     0.10000000E+002                6
 RTBSE| Simulation step         Convergence     Electron number  ETRS Iterations
 RTBSE|            4010     0.36324466E-007     0.10000000E+002                6
 RTBSE| Simulation step         Convergence     Electron number  ETRS Iterations
 RTBSE|            4011     0.34923548E-007     0.10000000E+002                6
 RTBSE| Simulation step         Convergence     Electron number  ETRS Iterations
 RTBSE|            4012     0.33422369E-007     0.10000000E+002                6
 RTBSE| Simulation step         Convergence     Electron number  ETRS Iterations
 RTBSE|            4013     0.31870328E-007     0.10000000E+002                6
 RTBSE| Simulation step         Convergence     Electron number  ETRS Iterations
 RTBSE|            4014     0.30242627E-007     0.10000000E+002                6
 RTBSE| Simulation step         Convergence     Electron number  ETRS Iterations
 RTBSE|            4015     0.28504438E-007     0.10000000E+002                6
 RTBSE| Simulation step         Convergence     Electron number  ETRS Iterations
 RTBSE|            4016     0.26533745E-007     0.10000000E+002                6
 RTBSE| Simulation step         Convergence     Electron number  ETRS Iterations
 RTBSE|            4017     0.24215193E-007     0.10000000E+002                6
 RTBSE| Simulation step         Convergence     Electron number  ETRS Iterations
 RTBSE|            4018     0.21429751E-007     0.10000000E+002                6
 RTBSE| Simulation step         Convergence     Electron number  ETRS Iterations
 RTBSE|            4019     0.18083035E-007     0.10000000E+002                6
 RTBSE| Simulation step         Convergence     Electron number  ETRS Iterations
 RTBSE|            4020     0.87324515E-007     0.10000000E+002                5
 RTBSE| Simulation step         Convergence     Electron number  ETRS Iterations
 RTBSE|            4021     0.72066648E-007     0.10000000E+002                5
 RTBSE| Simulation step         Convergence     Electron number  ETRS Iterations
 RTBSE|            4022     0.60362286E-007     0.10000000E+002                5
 RTBSE| Simulation step         Convergence     Electron number  ETRS Iterations
 RTBSE|            4023     0.14358606E-007     0.10000000E+002                6
 RTBSE| Simulation step         Convergence     Electron number  ETRS Iterations
 RTBSE|            4024     0.19018662E-007     0.10000000E+002                6
 RTBSE| Simulation step         Convergence     Electron number  ETRS Iterations
 RTBSE|            4025     0.23439586E-007     0.10000000E+002                6
 RTBSE| Simulation step         Convergence     Electron number  ETRS Iterations
 RTBSE|            4026     0.27318398E-007     0.10000000E+002                6
 RTBSE| Simulation step         Convergence     Electron number  ETRS Iterations
 RTBSE|            4027     0.30500558E-007     0.10000000E+002                6
 RTBSE| Simulation step         Convergence     Electron number  ETRS Iterations
 RTBSE|            4028     0.32806883E-007     0.10000000E+002                6
 RTBSE| Simulation step         Convergence     Electron number  ETRS Iterations
 RTBSE|            4029     0.34233409E-007     0.10000000E+002                6
 RTBSE| Simulation step         Convergence     Electron number  ETRS Iterations
 RTBSE|            4030     0.34720700E-007     0.10000000E+002                6
 RTBSE| Simulation step         Convergence     Electron number  ETRS Iterations
 RTBSE|            4031     0.34413708E-007     0.10000000E+002                6
 RTBSE| Simulation step         Convergence     Electron number  ETRS Iterations
 RTBSE|            4032     0.33433055E-007     0.10000000E+002                6
 RTBSE| Simulation step         Convergence     Electron number  ETRS Iterations
 RTBSE|            4033     0.33235228E-007     0.10000000E+002                6
 RTBSE| Simulation step         Convergence     Electron number  ETRS Iterations
 RTBSE|            4034     0.32681247E-007     0.10000000E+002                6
 RTBSE| Simulation step         Convergence     Electron number  ETRS Iterations
 RTBSE|            4035     0.31804397E-007     0.10000000E+002                6
 RTBSE| Simulation step         Convergence     Electron number  ETRS Iterations
 RTBSE|            4036     0.30767322E-007     0.10000000E+002                6
 RTBSE| Simulation step         Convergence     Electron number  ETRS Iterations
 RTBSE|            4037     0.29667155E-007     0.10000000E+002                6
 RTBSE| Simulation step         Convergence     Electron number  ETRS Iterations
 RTBSE|            4038     0.28601728E-007     0.10000000E+002                6
 RTBSE| Simulation step         Convergence     Electron number  ETRS Iterations
 RTBSE|            4039     0.27584697E-007     0.10000000E+002                6
 RTBSE| Simulation step         Convergence     Electron number  ETRS Iterations
 RTBSE|            4040     0.26573168E-007     0.10000000E+002                6
 RTBSE| Simulation step         Convergence     Electron number  ETRS Iterations
 RTBSE|            4041     0.25430036E-007     0.10000000E+002                6
 RTBSE| Simulation step         Convergence     Electron number  ETRS Iterations
 RTBSE|            4042     0.24015669E-007     0.10000000E+002                6
 RTBSE| Simulation step         Convergence     Electron number  ETRS Iterations
 RTBSE|            4043     0.22185836E-007     0.10000000E+002                6
 RTBSE| Simulation step         Convergence     Electron number  ETRS Iterations
 RTBSE|            4044     0.19746681E-007     0.10000000E+002                6
 RTBSE| Simulation step         Convergence     Electron number  ETRS Iterations
 RTBSE|            4045     0.94232686E-007     0.10000000E+002                5
 RTBSE| Simulation step         Convergence     Electron number  ETRS Iterations
 RTBSE|            4046     0.81440061E-007     0.10000000E+002                5
 RTBSE| Simulation step         Convergence     Electron number  ETRS Iterations
 RTBSE|            4047     0.68326896E-007     0.10000000E+002                5
 RTBSE| Simulation step         Convergence     Electron number  ETRS Iterations
 RTBSE|            4048     0.78275109E-007     0.10000000E+002                5
 RTBSE| Simulation step         Convergence     Electron number  ETRS Iterations
 RTBSE|            4049     0.17178745E-007     0.10000000E+002                6
 RTBSE| Simulation step         Convergence     Electron number  ETRS Iterations
 RTBSE|            4050     0.22134146E-007     0.10000000E+002                6
 RTBSE| Simulation step         Convergence     Electron number  ETRS Iterations
 RTBSE|            4051     0.26853885E-007     0.10000000E+002                6
 RTBSE| Simulation step         Convergence     Electron number  ETRS Iterations
 RTBSE|            4052     0.30978140E-007     0.10000000E+002                6
 RTBSE| Simulation step         Convergence     Electron number  ETRS Iterations
 RTBSE|            4053     0.34289957E-007     0.10000000E+002                6
 RTBSE| Simulation step         Convergence     Electron number  ETRS Iterations
 RTBSE|            4054     0.36670708E-007     0.10000000E+002                6
 RTBSE| Simulation step         Convergence     Electron number  ETRS Iterations
 RTBSE|            4055     0.38037084E-007     0.10000000E+002                6
 RTBSE| Simulation step         Convergence     Electron number  ETRS Iterations
 RTBSE|            4056     0.38448234E-007     0.10000000E+002                6
 RTBSE| Simulation step         Convergence     Electron number  ETRS Iterations
 RTBSE|            4057     0.37968962E-007     0.10000000E+002                6
 RTBSE| Simulation step         Convergence     Electron number  ETRS Iterations
 RTBSE|            4058     0.38383634E-007     0.10000000E+002                6
 RTBSE| Simulation step         Convergence     Electron number  ETRS Iterations
 RTBSE|            4059     0.38138913E-007     0.10000000E+002                6
 RTBSE| Simulation step         Convergence     Electron number  ETRS Iterations
 RTBSE|            4060     0.37356083E-007     0.10000000E+002                6
 RTBSE| Simulation step         Convergence     Electron number  ETRS Iterations
 RTBSE|            4061     0.36238694E-007     0.10000000E+002                6
 RTBSE| Simulation step         Convergence     Electron number  ETRS Iterations
 RTBSE|            4062     0.34930538E-007     0.10000000E+002                6
 RTBSE| Simulation step         Convergence     Electron number  ETRS Iterations
 RTBSE|            4063     0.33545498E-007     0.10000000E+002                6
 RTBSE| Simulation step         Convergence     Electron number  ETRS Iterations
 RTBSE|            4064     0.32125152E-007     0.10000000E+002                6
 RTBSE| Simulation step         Convergence     Electron number  ETRS Iterations
 RTBSE|            4065     0.30635400E-007     0.10000000E+002                6
 RTBSE| Simulation step         Convergence     Electron number  ETRS Iterations
 RTBSE|            4066     0.28998794E-007     0.10000000E+002                6
 RTBSE| Simulation step         Convergence     Electron number  ETRS Iterations
 RTBSE|            4067     0.27099918E-007     0.10000000E+002                6
 RTBSE| Simulation step         Convergence     Electron number  ETRS Iterations
 RTBSE|            4068     0.24823770E-007     0.10000000E+002                6
 RTBSE| Simulation step         Convergence     Electron number  ETRS Iterations
 RTBSE|            4069     0.22039537E-007     0.10000000E+002                6
 RTBSE| Simulation step         Convergence     Electron number  ETRS Iterations
 RTBSE|            4070     0.18689828E-007     0.10000000E+002                6
 RTBSE| Simulation step         Convergence     Electron number  ETRS Iterations
 RTBSE|            4071     0.89558221E-007     0.10000000E+002                5
 RTBSE| Simulation step         Convergence     Electron number  ETRS Iterations
 RTBSE|            4072     0.73922651E-007     0.10000000E+002                5
 RTBSE| Simulation step         Convergence     Electron number  ETRS Iterations
 RTBSE|            4073     0.60407830E-007     0.10000000E+002                5
 RTBSE| Simulation step         Convergence     Electron number  ETRS Iterations
 RTBSE|            4074     0.96523143E-007     0.10000000E+002                5
 RTBSE| Simulation step         Convergence     Electron number  ETRS Iterations
 RTBSE|            4075     0.18578165E-007     0.10000000E+002                6
 RTBSE| Simulation step         Convergence     Electron number  ETRS Iterations
 RTBSE|            4076     0.22973712E-007     0.10000000E+002                6
 RTBSE| Simulation step         Convergence     Electron number  ETRS Iterations
 RTBSE|            4077     0.26820819E-007     0.10000000E+002                6
 RTBSE| Simulation step         Convergence     Electron number  ETRS Iterations
 RTBSE|            4078     0.29951115E-007     0.10000000E+002                6
 RTBSE| Simulation step         Convergence     Electron number  ETRS Iterations
 RTBSE|            4079     0.32228355E-007     0.10000000E+002                6
 RTBSE| Simulation step         Convergence     Electron number  ETRS Iterations
 RTBSE|            4080     0.33614757E-007     0.10000000E+002                6
 RTBSE| Simulation step         Convergence     Electron number  ETRS Iterations
 RTBSE|            4081     0.34115974E-007     0.10000000E+002                6
 RTBSE| Simulation step         Convergence     Electron number  ETRS Iterations
 RTBSE|            4082     0.33847851E-007     0.10000000E+002                6
 RTBSE| Simulation step         Convergence     Electron number  ETRS Iterations
 RTBSE|            4083     0.32918743E-007     0.10000000E+002                6
 RTBSE| Simulation step         Convergence     Electron number  ETRS Iterations
 RTBSE|            4084     0.32534250E-007     0.10000000E+002                6
 RTBSE| Simulation step         Convergence     Electron number  ETRS Iterations
 RTBSE|            4085     0.32106064E-007     0.10000000E+002                6
 RTBSE| Simulation step         Convergence     Electron number  ETRS Iterations
 RTBSE|            4086     0.31406981E-007     0.10000000E+002                6
 RTBSE| Simulation step         Convergence     Electron number  ETRS Iterations
 RTBSE|            4087     0.30577608E-007     0.10000000E+002                6
 RTBSE| Simulation step         Convergence     Electron number  ETRS Iterations
 RTBSE|            4088     0.29722576E-007     0.10000000E+002                6
 RTBSE| Simulation step         Convergence     Electron number  ETRS Iterations
 RTBSE|            4089     0.28910789E-007     0.10000000E+002                6
 RTBSE| Simulation step         Convergence     Electron number  ETRS Iterations
 RTBSE|            4090     0.28122077E-007     0.10000000E+002                6
 RTBSE| Simulation step         Convergence     Electron number  ETRS Iterations
 RTBSE|            4091     0.27326481E-007     0.10000000E+002                6
 RTBSE| Simulation step         Convergence     Electron number  ETRS Iterations
 RTBSE|            4092     0.26372254E-007     0.10000000E+002                6
 RTBSE| Simulation step         Convergence     Electron number  ETRS Iterations
 RTBSE|            4093     0.25097680E-007     0.10000000E+002                6
 RTBSE| Simulation step         Convergence     Electron number  ETRS Iterations
 RTBSE|            4094     0.23319403E-007     0.10000000E+002                6
 RTBSE| Simulation step         Convergence     Electron number  ETRS Iterations
 RTBSE|            4095     0.20903386E-007     0.10000000E+002                6
 RTBSE| Simulation step         Convergence     Electron number  ETRS Iterations
 RTBSE|            4096     0.98836987E-007     0.10000000E+002                5
 RTBSE| Simulation step         Convergence     Electron number  ETRS Iterations
 RTBSE|            4097     0.85355791E-007     0.10000000E+002                5
 RTBSE| Simulation step         Convergence     Electron number  ETRS Iterations
 RTBSE|            4098     0.71260248E-007     0.10000000E+002                5
 RTBSE| Simulation step         Convergence     Electron number  ETRS Iterations
 RTBSE|            4099     0.74249165E-007     0.10000000E+002                5
 RTBSE| Simulation step         Convergence     Electron number  ETRS Iterations
 RTBSE|            4100     0.16841610E-007     0.10000000E+002                6
 RTBSE| Simulation step         Convergence     Electron number  ETRS Iterations
 RTBSE|            4101     0.21889926E-007     0.10000000E+002                6
 RTBSE| Simulation step         Convergence     Electron number  ETRS Iterations
 RTBSE|            4102     0.26615900E-007     0.10000000E+002                6
 RTBSE| Simulation step         Convergence     Electron number  ETRS Iterations
 RTBSE|            4103     0.30764352E-007     0.10000000E+002                6
 RTBSE| Simulation step         Convergence     Electron number  ETRS Iterations
 RTBSE|            4104     0.34061472E-007     0.10000000E+002                6
 RTBSE| Simulation step         Convergence     Electron number  ETRS Iterations
 RTBSE|            4105     0.36422708E-007     0.10000000E+002                6
 RTBSE| Simulation step         Convergence     Electron number  ETRS Iterations
 RTBSE|            4106     0.37754449E-007     0.10000000E+002                6
 RTBSE| Simulation step         Convergence     Electron number  ETRS Iterations
 RTBSE|            4107     0.38135005E-007     0.10000000E+002                6
 RTBSE| Simulation step         Convergence     Electron number  ETRS Iterations
 RTBSE|            4108     0.37676909E-007     0.10000000E+002                6
 RTBSE| Simulation step         Convergence     Electron number  ETRS Iterations
 RTBSE|            4109     0.37902231E-007     0.10000000E+002                6
 RTBSE| Simulation step         Convergence     Electron number  ETRS Iterations
 RTBSE|            4110     0.37672499E-007     0.10000000E+002                6
 RTBSE| Simulation step         Convergence     Electron number  ETRS Iterations
 RTBSE|            4111     0.36967417E-007     0.10000000E+002                6
 RTBSE| Simulation step         Convergence     Electron number  ETRS Iterations
 RTBSE|            4112     0.35957364E-007     0.10000000E+002                6
 RTBSE| Simulation step         Convergence     Electron number  ETRS Iterations
 RTBSE|            4113     0.34793814E-007     0.10000000E+002                6
 RTBSE| Simulation step         Convergence     Electron number  ETRS Iterations
 RTBSE|            4114     0.33566591E-007     0.10000000E+002                6
 RTBSE| Simulation step         Convergence     Electron number  ETRS Iterations
 RTBSE|            4115     0.32316096E-007     0.10000000E+002                6
 RTBSE| Simulation step         Convergence     Electron number  ETRS Iterations
 RTBSE|            4116     0.30991943E-007     0.10000000E+002                6
 RTBSE| Simulation step         Convergence     Electron number  ETRS Iterations
 RTBSE|            4117     0.29523718E-007     0.10000000E+002                6
 RTBSE| Simulation step         Convergence     Electron number  ETRS Iterations
 RTBSE|            4118     0.27772999E-007     0.10000000E+002                6
 RTBSE| Simulation step         Convergence     Electron number  ETRS Iterations
 RTBSE|            4119     0.25614926E-007     0.10000000E+002                6
 RTBSE| Simulation step         Convergence     Electron number  ETRS Iterations
 RTBSE|            4120     0.22916166E-007     0.10000000E+002                6
 RTBSE| Simulation step         Convergence     Electron number  ETRS Iterations
 RTBSE|            4121     0.19597161E-007     0.10000000E+002                6
 RTBSE| Simulation step         Convergence     Electron number  ETRS Iterations
 RTBSE|            4122     0.93190842E-007     0.10000000E+002                5
 RTBSE| Simulation step         Convergence     Electron number  ETRS Iterations
 RTBSE|            4123     0.77035757E-007     0.10000000E+002                5
 RTBSE| Simulation step         Convergence     Electron number  ETRS Iterations
 RTBSE|            4124     0.62493981E-007     0.10000000E+002                5
 RTBSE| Simulation step         Convergence     Electron number  ETRS Iterations
 RTBSE|            4125     0.90785132E-007     0.10000000E+002                5
 RTBSE| Simulation step         Convergence     Electron number  ETRS Iterations
 RTBSE|            4126     0.17923150E-007     0.10000000E+002                6
 RTBSE| Simulation step         Convergence     Electron number  ETRS Iterations
 RTBSE|            4127     0.22315088E-007     0.10000000E+002                6
 RTBSE| Simulation step         Convergence     Electron number  ETRS Iterations
 RTBSE|            4128     0.26213114E-007     0.10000000E+002                6
 RTBSE| Simulation step         Convergence     Electron number  ETRS Iterations
 RTBSE|            4129     0.29369103E-007     0.10000000E+002                6
 RTBSE| Simulation step         Convergence     Electron number  ETRS Iterations
 RTBSE|            4130     0.31684592E-007     0.10000000E+002                6
 RTBSE| Simulation step         Convergence     Electron number  ETRS Iterations
 RTBSE|            4131     0.33121408E-007     0.10000000E+002                6
 RTBSE| Simulation step         Convergence     Electron number  ETRS Iterations
 RTBSE|            4132     0.33690396E-007     0.10000000E+002                6
 RTBSE| Simulation step         Convergence     Electron number  ETRS Iterations
 RTBSE|            4133     0.33540202E-007     0.10000000E+002                6
 RTBSE| Simulation step         Convergence     Electron number  ETRS Iterations
 RTBSE|            4134     0.32764376E-007     0.10000000E+002                6
 RTBSE| Simulation step         Convergence     Electron number  ETRS Iterations
 RTBSE|            4135     0.32136850E-007     0.10000000E+002                6
 RTBSE| Simulation step         Convergence     Electron number  ETRS Iterations
 RTBSE|            4136     0.31887037E-007     0.10000000E+002                6
 RTBSE| Simulation step         Convergence     Electron number  ETRS Iterations
 RTBSE|            4137     0.31374528E-007     0.10000000E+002                6
 RTBSE| Simulation step         Convergence     Electron number  ETRS Iterations
 RTBSE|            4138     0.30754056E-007     0.10000000E+002                6
 RTBSE| Simulation step         Convergence     Electron number  ETRS Iterations
 RTBSE|            4139     0.30132889E-007     0.10000000E+002                6
 RTBSE| Simulation step         Convergence     Electron number  ETRS Iterations
 RTBSE|            4140     0.29534284E-007     0.10000000E+002                6
 RTBSE| Simulation step         Convergence     Electron number  ETRS Iterations
 RTBSE|            4141     0.28958083E-007     0.10000000E+002                6
 RTBSE| Simulation step         Convergence     Electron number  ETRS Iterations
 RTBSE|            4142     0.28293396E-007     0.10000000E+002                6
 RTBSE| Simulation step         Convergence     Electron number  ETRS Iterations
 RTBSE|            4143     0.27428686E-007     0.10000000E+002                6
 RTBSE| Simulation step         Convergence     Electron number  ETRS Iterations
 RTBSE|            4144     0.26193302E-007     0.10000000E+002                6
 RTBSE| Simulation step         Convergence     Electron number  ETRS Iterations
 RTBSE|            4145     0.24407067E-007     0.10000000E+002                6
 RTBSE| Simulation step         Convergence     Electron number  ETRS Iterations
 RTBSE|            4146     0.21905398E-007     0.10000000E+002                6
 RTBSE| Simulation step         Convergence     Electron number  ETRS Iterations
 RTBSE|            4147     0.18584128E-007     0.10000000E+002                6
 RTBSE| Simulation step         Convergence     Electron number  ETRS Iterations
 RTBSE|            4148     0.88509943E-007     0.10000000E+002                5
 RTBSE| Simulation step         Convergence     Electron number  ETRS Iterations
 RTBSE|            4149     0.73452710E-007     0.10000000E+002                5
 RTBSE| Simulation step         Convergence     Electron number  ETRS Iterations
 RTBSE|            4150     0.72101276E-007     0.10000000E+002                5
 RTBSE| Simulation step         Convergence     Electron number  ETRS Iterations
 RTBSE|            4151     0.16676134E-007     0.10000000E+002                6
 RTBSE| Simulation step         Convergence     Electron number  ETRS Iterations
 RTBSE|            4152     0.21737770E-007     0.10000000E+002                6
 RTBSE| Simulation step         Convergence     Electron number  ETRS Iterations
 RTBSE|            4153     0.26480450E-007     0.10000000E+002                6
 RTBSE| Simulation step         Convergence     Electron number  ETRS Iterations
 RTBSE|            4154     0.30594137E-007     0.10000000E+002                6
 RTBSE| Simulation step         Convergence     Electron number  ETRS Iterations
 RTBSE|            4155     0.33847940E-007     0.10000000E+002                6
 RTBSE| Simulation step         Convergence     Electron number  ETRS Iterations
 RTBSE|            4156     0.36129151E-007     0.10000000E+002                6
 RTBSE| Simulation step         Convergence     Electron number  ETRS Iterations
 RTBSE|            4157     0.37440006E-007     0.10000000E+002                6
 RTBSE| Simulation step         Convergence     Electron number  ETRS Iterations
 RTBSE|            4158     0.37792833E-007     0.10000000E+002                6
 RTBSE| Simulation step         Convergence     Electron number  ETRS Iterations
 RTBSE|            4159     0.37329451E-007     0.10000000E+002                6
 RTBSE| Simulation step         Convergence     Electron number  ETRS Iterations
 RTBSE|            4160     0.37348204E-007     0.10000000E+002                6
 RTBSE| Simulation step         Convergence     Electron number  ETRS Iterations
 RTBSE|            4161     0.37168924E-007     0.10000000E+002                6
 RTBSE| Simulation step         Convergence     Electron number  ETRS Iterations
 RTBSE|            4162     0.36548099E-007     0.10000000E+002                6
 RTBSE| Simulation step         Convergence     Electron number  ETRS Iterations
 RTBSE|            4163     0.35672160E-007     0.10000000E+002                6
 RTBSE| Simulation step         Convergence     Electron number  ETRS Iterations
 RTBSE|            4164     0.34667868E-007     0.10000000E+002                6
 RTBSE| Simulation step         Convergence     Electron number  ETRS Iterations
 RTBSE|            4165     0.33646023E-007     0.10000000E+002                6
 RTBSE| Simulation step         Convergence     Electron number  ETRS Iterations
 RTBSE|            4166     0.32614850E-007     0.10000000E+002                6
 RTBSE| Simulation step         Convergence     Electron number  ETRS Iterations
 RTBSE|            4167     0.31513148E-007     0.10000000E+002                6
 RTBSE| Simulation step         Convergence     Electron number  ETRS Iterations
 RTBSE|            4168     0.30229790E-007     0.10000000E+002                6
 RTBSE| Simulation step         Convergence     Electron number  ETRS Iterations
 RTBSE|            4169     0.28638336E-007     0.10000000E+002                6
 RTBSE| Simulation step         Convergence     Electron number  ETRS Iterations
 RTBSE|            4170     0.26570517E-007     0.10000000E+002                6
 RTBSE| Simulation step         Convergence     Electron number  ETRS Iterations
 RTBSE|            4171     0.23940063E-007     0.10000000E+002                6
 RTBSE| Simulation step         Convergence     Electron number  ETRS Iterations
 RTBSE|            4172     0.20632572E-007     0.10000000E+002                6
 RTBSE| Simulation step         Convergence     Electron number  ETRS Iterations
 RTBSE|            4173     0.97461883E-007     0.10000000E+002                5
 RTBSE| Simulation step         Convergence     Electron number  ETRS Iterations
 RTBSE|            4174     0.80770305E-007     0.10000000E+002                5
 RTBSE| Simulation step         Convergence     Electron number  ETRS Iterations
 RTBSE|            4175     0.65196911E-007     0.10000000E+002                5
 RTBSE| Simulation step         Convergence     Electron number  ETRS Iterations
 RTBSE|            4176     0.86622672E-007     0.10000000E+002                5
 RTBSE| Simulation step         Convergence     Electron number  ETRS Iterations
 RTBSE|            4177     0.17529157E-007     0.10000000E+002                6
 RTBSE| Simulation step         Convergence     Electron number  ETRS Iterations
 RTBSE|            4178     0.22022549E-007     0.10000000E+002                6
 RTBSE| Simulation step         Convergence     Electron number  ETRS Iterations
 RTBSE|            4179     0.25950521E-007     0.10000000E+002                6
 RTBSE| Simulation step         Convergence     Electron number  ETRS Iterations
 RTBSE|            4180     0.29150964E-007     0.10000000E+002                6
 RTBSE| Simulation step         Convergence     Electron number  ETRS Iterations
 RTBSE|            4181     0.31507142E-007     0.10000000E+002                6
 RTBSE| Simulation step         Convergence     Electron number  ETRS Iterations
 RTBSE|            4182     0.32983658E-007     0.10000000E+002                6
 RTBSE| Simulation step         Convergence     Electron number  ETRS Iterations
 RTBSE|            4183     0.33586595E-007     0.10000000E+002                6
 RTBSE| Simulation step         Convergence     Electron number  ETRS Iterations
 RTBSE|            4184     0.33442375E-007     0.10000000E+002                6
 RTBSE| Simulation step         Convergence     Electron number  ETRS Iterations
 RTBSE|            4185     0.32693286E-007     0.10000000E+002                6
 RTBSE| Simulation step         Convergence     Electron number  ETRS Iterations
 RTBSE|            4186     0.31915965E-007     0.10000000E+002                6
 RTBSE| Simulation step         Convergence     Electron number  ETRS Iterations
 RTBSE|            4187     0.31722223E-007     0.10000000E+002                6
 RTBSE| Simulation step         Convergence     Electron number  ETRS Iterations
 RTBSE|            4188     0.31308936E-007     0.10000000E+002                6
 RTBSE| Simulation step         Convergence     Electron number  ETRS Iterations
 RTBSE|            4189     0.30787405E-007     0.10000000E+002                6
 RTBSE| Simulation step         Convergence     Electron number  ETRS Iterations
 RTBSE|            4190     0.30269259E-007     0.10000000E+002                6
 RTBSE| Simulation step         Convergence     Electron number  ETRS Iterations
 RTBSE|            4191     0.29776358E-007     0.10000000E+002                6
 RTBSE| Simulation step         Convergence     Electron number  ETRS Iterations
 RTBSE|            4192     0.29308198E-007     0.10000000E+002                6
 RTBSE| Simulation step         Convergence     Electron number  ETRS Iterations
 RTBSE|            4193     0.28747095E-007     0.10000000E+002                6
 RTBSE| Simulation step         Convergence     Electron number  ETRS Iterations
 RTBSE|            4194     0.27937051E-007     0.10000000E+002                6
 RTBSE| Simulation step         Convergence     Electron number  ETRS Iterations
 RTBSE|            4195     0.26745355E-007     0.10000000E+002                6
 RTBSE| Simulation step         Convergence     Electron number  ETRS Iterations
 RTBSE|            4196     0.24965961E-007     0.10000000E+002                6
 RTBSE| Simulation step         Convergence     Electron number  ETRS Iterations
 RTBSE|            4197     0.22455361E-007     0.10000000E+002                6
 RTBSE| Simulation step         Convergence     Electron number  ETRS Iterations
 RTBSE|            4198     0.19104996E-007     0.10000000E+002                6
 RTBSE| Simulation step         Convergence     Electron number  ETRS Iterations
 RTBSE|            4199     0.90200629E-007     0.10000000E+002                5
 RTBSE| Simulation step         Convergence     Electron number  ETRS Iterations
 RTBSE|            4200     0.74681189E-007     0.10000000E+002                5
 RTBSE| Simulation step         Convergence     Electron number  ETRS Iterations
 RTBSE|            4201     0.68737422E-007     0.10000000E+002                5
 RTBSE| Simulation step         Convergence     Electron number  ETRS Iterations
 RTBSE|            4202     0.16224886E-007     0.10000000E+002                6
 RTBSE| Simulation step         Convergence     Electron number  ETRS Iterations
 RTBSE|            4203     0.21277834E-007     0.10000000E+002                6
 RTBSE| Simulation step         Convergence     Electron number  ETRS Iterations
 RTBSE|            4204     0.25994944E-007     0.10000000E+002                6
 RTBSE| Simulation step         Convergence     Electron number  ETRS Iterations
 RTBSE|            4205     0.30047726E-007     0.10000000E+002                6
 RTBSE| Simulation step         Convergence     Electron number  ETRS Iterations
 RTBSE|            4206     0.33238873E-007     0.10000000E+002                6
 RTBSE| Simulation step         Convergence     Electron number  ETRS Iterations
 RTBSE|            4207     0.35478507E-007     0.10000000E+002                6
 RTBSE| Simulation step         Convergence     Electron number  ETRS Iterations
 RTBSE|            4208     0.36773022E-007     0.10000000E+002                6
 RTBSE| Simulation step         Convergence     Electron number  ETRS Iterations
 RTBSE|            4209     0.37157880E-007     0.10000000E+002                6
 RTBSE| Simulation step         Convergence     Electron number  ETRS Iterations
 RTBSE|            4210     0.36780106E-007     0.10000000E+002                6
 RTBSE| Simulation step         Convergence     Electron number  ETRS Iterations
 RTBSE|            4211     0.36537107E-007     0.10000000E+002                6
 RTBSE| Simulation step         Convergence     Electron number  ETRS Iterations
 RTBSE|            4212     0.36453730E-007     0.10000000E+002                6
 RTBSE| Simulation step         Convergence     Electron number  ETRS Iterations
 RTBSE|            4213     0.35986334E-007     0.10000000E+002                6
 RTBSE| Simulation step         Convergence     Electron number  ETRS Iterations
 RTBSE|            4214     0.35324812E-007     0.10000000E+002                6
 RTBSE| Simulation step         Convergence     Electron number  ETRS Iterations
 RTBSE|            4215     0.34586820E-007     0.10000000E+002                6
 RTBSE| Simulation step         Convergence     Electron number  ETRS Iterations
 RTBSE|            4216     0.33814105E-007     0.10000000E+002                6
 RTBSE| Simulation step         Convergence     Electron number  ETRS Iterations
 RTBSE|            4217     0.33033927E-007     0.10000000E+002                6
 RTBSE| Simulation step         Convergence     Electron number  ETRS Iterations
 RTBSE|            4218     0.32155242E-007     0.10000000E+002                6
 RTBSE| Simulation step         Convergence     Electron number  ETRS Iterations
 RTBSE|            4219     0.31065582E-007     0.10000000E+002                6
 RTBSE| Simulation step         Convergence     Electron number  ETRS Iterations
 RTBSE|            4220     0.29627639E-007     0.10000000E+002                6
 RTBSE| Simulation step         Convergence     Electron number  ETRS Iterations
 RTBSE|            4221     0.27646943E-007     0.10000000E+002                6
 RTBSE| Simulation step         Convergence     Electron number  ETRS Iterations
 RTBSE|            4222     0.25035718E-007     0.10000000E+002                6
 RTBSE| Simulation step         Convergence     Electron number  ETRS Iterations
 RTBSE|            4223     0.21694431E-007     0.10000000E+002                6
 RTBSE| Simulation step         Convergence     Electron number  ETRS Iterations
 RTBSE|            4224     0.17633883E-007     0.10000000E+002                6
 RTBSE| Simulation step         Convergence     Electron number  ETRS Iterations
 RTBSE|            4225     0.84414065E-007     0.10000000E+002                5
 RTBSE| Simulation step         Convergence     Electron number  ETRS Iterations
 RTBSE|            4226     0.67764384E-007     0.10000000E+002                5
 RTBSE| Simulation step         Convergence     Electron number  ETRS Iterations
 RTBSE|            4227     0.82848195E-007     0.10000000E+002                5
 RTBSE| Simulation step         Convergence     Electron number  ETRS Iterations
 RTBSE|            4228     0.17187722E-007     0.10000000E+002                6
 RTBSE| Simulation step         Convergence     Electron number  ETRS Iterations
 RTBSE|            4229     0.21723803E-007     0.10000000E+002                6
 RTBSE| Simulation step         Convergence     Electron number  ETRS Iterations
 RTBSE|            4230     0.25696911E-007     0.10000000E+002                6
 RTBSE| Simulation step         Convergence     Electron number  ETRS Iterations
 RTBSE|            4231     0.28907534E-007     0.10000000E+002                6
 RTBSE| Simulation step         Convergence     Electron number  ETRS Iterations
 RTBSE|            4232     0.31260959E-007     0.10000000E+002                6
 RTBSE| Simulation step         Convergence     Electron number  ETRS Iterations
 RTBSE|            4233     0.32698668E-007     0.10000000E+002                6
 RTBSE| Simulation step         Convergence     Electron number  ETRS Iterations
 RTBSE|            4234     0.33309408E-007     0.10000000E+002                6
 RTBSE| Simulation step         Convergence     Electron number  ETRS Iterations
 RTBSE|            4235     0.33168957E-007     0.10000000E+002                6
 RTBSE| Simulation step         Convergence     Electron number  ETRS Iterations
 RTBSE|            4236     0.32457416E-007     0.10000000E+002                6
 RTBSE| Simulation step         Convergence     Electron number  ETRS Iterations
 RTBSE|            4237     0.31514384E-007     0.10000000E+002                6
 RTBSE| Simulation step         Convergence     Electron number  ETRS Iterations
 RTBSE|            4238     0.31367025E-007     0.10000000E+002                6
 RTBSE| Simulation step         Convergence     Electron number  ETRS Iterations
 RTBSE|            4239     0.31009965E-007     0.10000000E+002                6
 RTBSE| Simulation step         Convergence     Electron number  ETRS Iterations
 RTBSE|            4240     0.30576967E-007     0.10000000E+002                6
 RTBSE| Simulation step         Convergence     Electron number  ETRS Iterations
 RTBSE|            4241     0.30175133E-007     0.10000000E+002                6
 RTBSE| Simulation step         Convergence     Electron number  ETRS Iterations
 RTBSE|            4242     0.29826142E-007     0.10000000E+002                6
 RTBSE| Simulation step         Convergence     Electron number  ETRS Iterations
 RTBSE|            4243     0.29491667E-007     0.10000000E+002                6
 RTBSE| Simulation step         Convergence     Electron number  ETRS Iterations
 RTBSE|            4244     0.29054428E-007     0.10000000E+002                6
 RTBSE| Simulation step         Convergence     Electron number  ETRS Iterations
 RTBSE|            4245     0.28390471E-007     0.10000000E+002                6
 RTBSE| Simulation step         Convergence     Electron number  ETRS Iterations
 RTBSE|            4246     0.27308193E-007     0.10000000E+002                6
 RTBSE| Simulation step         Convergence     Electron number  ETRS Iterations
 RTBSE|            4247     0.25616809E-007     0.10000000E+002                6
 RTBSE| Simulation step         Convergence     Electron number  ETRS Iterations
 RTBSE|            4248     0.23167806E-007     0.10000000E+002                6
 RTBSE| Simulation step         Convergence     Electron number  ETRS Iterations
 RTBSE|            4249     0.19878841E-007     0.10000000E+002                6
 RTBSE| Simulation step         Convergence     Electron number  ETRS Iterations
 RTBSE|            4250     0.93119524E-007     0.10000000E+002                5
 RTBSE| Simulation step         Convergence     Electron number  ETRS Iterations
 RTBSE|            4251     0.77154661E-007     0.10000000E+002                5
 RTBSE| Simulation step         Convergence     Electron number  ETRS Iterations
 RTBSE|            4252     0.63584769E-007     0.10000000E+002                5
 RTBSE| Simulation step         Convergence     Electron number  ETRS Iterations
 RTBSE|            4253     0.15552771E-007     0.10000000E+002                6
 RTBSE| Simulation step         Convergence     Electron number  ETRS Iterations
 RTBSE|            4254     0.20579981E-007     0.10000000E+002                6
 RTBSE| Simulation step         Convergence     Electron number  ETRS Iterations
 RTBSE|            4255     0.25274555E-007     0.10000000E+002                6
 RTBSE| Simulation step         Convergence     Electron number  ETRS Iterations
 RTBSE|            4256     0.29338101E-007     0.10000000E+002                6
 RTBSE| Simulation step         Convergence     Electron number  ETRS Iterations
 RTBSE|            4257     0.32568947E-007     0.10000000E+002                6
 RTBSE| Simulation step         Convergence     Electron number  ETRS Iterations
 RTBSE|            4258     0.34824804E-007     0.10000000E+002                6
 RTBSE| Simulation step         Convergence     Electron number  ETRS Iterations
 RTBSE|            4259     0.36175636E-007     0.10000000E+002                6
 RTBSE| Simulation step         Convergence     Electron number  ETRS Iterations
 RTBSE|            4260     0.36643781E-007     0.10000000E+002                6
 RTBSE| Simulation step         Convergence     Electron number  ETRS Iterations
 RTBSE|            4261     0.36374564E-007     0.10000000E+002                6
 RTBSE| Simulation step         Convergence     Electron number  ETRS Iterations
 RTBSE|            4262     0.35879540E-007     0.10000000E+002                6
 RTBSE| Simulation step         Convergence     Electron number  ETRS Iterations
 RTBSE|            4263     0.35988303E-007     0.10000000E+002                6
 RTBSE| Simulation step         Convergence     Electron number  ETRS Iterations
 RTBSE|            4264     0.35764990E-007     0.10000000E+002                6
 RTBSE| Simulation step         Convergence     Electron number  ETRS Iterations
 RTBSE|            4265     0.35346963E-007     0.10000000E+002                6
 RTBSE| Simulation step         Convergence     Electron number  ETRS Iterations
 RTBSE|            4266     0.34870752E-007     0.10000000E+002                6
 RTBSE| Simulation step         Convergence     Electron number  ETRS Iterations
 RTBSE|            4267     0.34380737E-007     0.10000000E+002                6
 RTBSE| Simulation step         Convergence     Electron number  ETRS Iterations
 RTBSE|            4268     0.33843317E-007     0.10000000E+002                6
 RTBSE| Simulation step         Convergence     Electron number  ETRS Iterations
 RTBSE|            4269     0.33185045E-007     0.10000000E+002                6
 RTBSE| Simulation step         Convergence     Electron number  ETRS Iterations
 RTBSE|            4270     0.32232812E-007     0.10000000E+002                6
 RTBSE| Simulation step         Convergence     Electron number  ETRS Iterations
 RTBSE|            4271     0.30846711E-007     0.10000000E+002                6
 RTBSE| Simulation step         Convergence     Electron number  ETRS Iterations
 RTBSE|            4272     0.28888038E-007     0.10000000E+002                6
 RTBSE| Simulation step         Convergence     Electron number  ETRS Iterations
 RTBSE|            4273     0.26214126E-007     0.10000000E+002                6
 RTBSE| Simulation step         Convergence     Electron number  ETRS Iterations
 RTBSE|            4274     0.22762361E-007     0.10000000E+002                6
 RTBSE| Simulation step         Convergence     Electron number  ETRS Iterations
 RTBSE|            4275     0.18540414E-007     0.10000000E+002                6
 RTBSE| Simulation step         Convergence     Electron number  ETRS Iterations
 RTBSE|            4276     0.87671553E-007     0.10000000E+002                5
 RTBSE| Simulation step         Convergence     Electron number  ETRS Iterations
 RTBSE|            4277     0.69921217E-007     0.10000000E+002                5
 RTBSE| Simulation step         Convergence     Electron number  ETRS Iterations
 RTBSE|            4278     0.81297774E-007     0.10000000E+002                5
 RTBSE| Simulation step         Convergence     Electron number  ETRS Iterations
 RTBSE|            4279     0.17113982E-007     0.10000000E+002                6
 RTBSE| Simulation step         Convergence     Electron number  ETRS Iterations
 RTBSE|            4280     0.21697956E-007     0.10000000E+002                6
 RTBSE| Simulation step         Convergence     Electron number  ETRS Iterations
 RTBSE|            4281     0.25640609E-007     0.10000000E+002                6
 RTBSE| Simulation step         Convergence     Electron number  ETRS Iterations
 RTBSE|            4282     0.28826184E-007     0.10000000E+002                6
 RTBSE| Simulation step         Convergence     Electron number  ETRS Iterations
 RTBSE|            4283     0.31113337E-007     0.10000000E+002                6
 RTBSE| Simulation step         Convergence     Electron number  ETRS Iterations
 RTBSE|            4284     0.32506337E-007     0.10000000E+002                6
 RTBSE| Simulation step         Convergence     Electron number  ETRS Iterations
 RTBSE|            4285     0.33025371E-007     0.10000000E+002                6
 RTBSE| Simulation step         Convergence     Electron number  ETRS Iterations
 RTBSE|            4286     0.32861565E-007     0.10000000E+002                6
 RTBSE| Simulation step         Convergence     Electron number  ETRS Iterations
 RTBSE|            4287     0.32111613E-007     0.10000000E+002                6
 RTBSE| Simulation step         Convergence     Electron number  ETRS Iterations
 RTBSE|            4288     0.31009265E-007     0.10000000E+002                6
 RTBSE| Simulation step         Convergence     Electron number  ETRS Iterations
 RTBSE|            4289     0.30876699E-007     0.10000000E+002                6
 RTBSE| Simulation step         Convergence     Electron number  ETRS Iterations
 RTBSE|            4290     0.30585533E-007     0.10000000E+002                6
 RTBSE| Simulation step         Convergence     Electron number  ETRS Iterations
 RTBSE|            4291     0.30248855E-007     0.10000000E+002                6
 RTBSE| Simulation step         Convergence     Electron number  ETRS Iterations
 RTBSE|            4292     0.29986254E-007     0.10000000E+002                6
 RTBSE| Simulation step         Convergence     Electron number  ETRS Iterations
 RTBSE|            4293     0.29779247E-007     0.10000000E+002                6
 RTBSE| Simulation step         Convergence     Electron number  ETRS Iterations
 RTBSE|            4294     0.29616987E-007     0.10000000E+002                6
 RTBSE| Simulation step         Convergence     Electron number  ETRS Iterations
 RTBSE|            4295     0.29382387E-007     0.10000000E+002                6
 RTBSE| Simulation step         Convergence     Electron number  ETRS Iterations
 RTBSE|            4296     0.28885614E-007     0.10000000E+002                6
 RTBSE| Simulation step         Convergence     Electron number  ETRS Iterations
 RTBSE|            4297     0.27966563E-007     0.10000000E+002                6
 RTBSE| Simulation step         Convergence     Electron number  ETRS Iterations
 RTBSE|            4298     0.26398494E-007     0.10000000E+002                6
 RTBSE| Simulation step         Convergence     Electron number  ETRS Iterations
 RTBSE|            4299     0.24029583E-007     0.10000000E+002                6
 RTBSE| Simulation step         Convergence     Electron number  ETRS Iterations
 RTBSE|            4300     0.20783963E-007     0.10000000E+002                6
 RTBSE| Simulation step         Convergence     Electron number  ETRS Iterations
 RTBSE|            4301     0.96657980E-007     0.10000000E+002                5
 RTBSE| Simulation step         Convergence     Electron number  ETRS Iterations
 RTBSE|            4302     0.80239661E-007     0.10000000E+002                5
 RTBSE| Simulation step         Convergence     Electron number  ETRS Iterations
 RTBSE|            4303     0.65619606E-007     0.10000000E+002                5
 RTBSE| Simulation step         Convergence     Electron number  ETRS Iterations
 RTBSE|            4304     0.15000939E-007     0.10000000E+002                6
 RTBSE| Simulation step         Convergence     Electron number  ETRS Iterations
 RTBSE|            4305     0.20037584E-007     0.10000000E+002                6
 RTBSE| Simulation step         Convergence     Electron number  ETRS Iterations
 RTBSE|            4306     0.24755172E-007     0.10000000E+002                6
 RTBSE| Simulation step         Convergence     Electron number  ETRS Iterations
 RTBSE|            4307     0.28862781E-007     0.10000000E+002                6
 RTBSE| Simulation step         Convergence     Electron number  ETRS Iterations
 RTBSE|            4308     0.32144323E-007     0.10000000E+002                6
 RTBSE| Simulation step         Convergence     Electron number  ETRS Iterations
 RTBSE|            4309     0.34464209E-007     0.10000000E+002                6
 RTBSE| Simulation step         Convergence     Electron number  ETRS Iterations
 RTBSE|            4310     0.35871320E-007     0.10000000E+002                6
 RTBSE| Simulation step         Convergence     Electron number  ETRS Iterations
 RTBSE|            4311     0.36430616E-007     0.10000000E+002                6
 RTBSE| Simulation step         Convergence     Electron number  ETRS Iterations
 RTBSE|            4312     0.36294304E-007     0.10000000E+002                6
 RTBSE| Simulation step         Convergence     Electron number  ETRS Iterations
 RTBSE|            4313     0.35603779E-007     0.10000000E+002                6
 RTBSE| Simulation step         Convergence     Electron number  ETRS Iterations
 RTBSE|            4314     0.35841184E-007     0.10000000E+002                6
 RTBSE| Simulation step         Convergence     Electron number  ETRS Iterations
 RTBSE|            4315     0.35765228E-007     0.10000000E+002                6
 RTBSE| Simulation step         Convergence     Electron number  ETRS Iterations
 RTBSE|            4316     0.35502125E-007     0.10000000E+002                6
 RTBSE| Simulation step         Convergence     Electron number  ETRS Iterations
 RTBSE|            4317     0.35193117E-007     0.10000000E+002                6
 RTBSE| Simulation step         Convergence     Electron number  ETRS Iterations
 RTBSE|            4318     0.34854818E-007     0.10000000E+002                6
 RTBSE| Simulation step         Convergence     Electron number  ETRS Iterations
 RTBSE|            4319     0.34434334E-007     0.10000000E+002                6
 RTBSE| Simulation step         Convergence     Electron number  ETRS Iterations
 RTBSE|            4320     0.33836417E-007     0.10000000E+002                6
 RTBSE| Simulation step         Convergence     Electron number  ETRS Iterations
 RTBSE|            4321     0.32926668E-007     0.10000000E+002                6
 RTBSE| Simulation step         Convergence     Electron number  ETRS Iterations
 RTBSE|            4322     0.31568559E-007     0.10000000E+002                6
 RTBSE| Simulation step         Convergence     Electron number  ETRS Iterations
 RTBSE|            4323     0.29571156E-007     0.10000000E+002                6
 RTBSE| Simulation step         Convergence     Electron number  ETRS Iterations
 RTBSE|            4324     0.26826512E-007     0.10000000E+002                6
 RTBSE| Simulation step         Convergence     Electron number  ETRS Iterations
 RTBSE|            4325     0.23279117E-007     0.10000000E+002                6
 RTBSE| Simulation step         Convergence     Electron number  ETRS Iterations
 RTBSE|            4326     0.18945453E-007     0.10000000E+002                6
 RTBSE| Simulation step         Convergence     Electron number  ETRS Iterations
 RTBSE|            4327     0.88826278E-007     0.10000000E+002                5
 RTBSE| Simulation step         Convergence     Electron number  ETRS Iterations
 RTBSE|            4328     0.70561022E-007     0.10000000E+002                5
 RTBSE| Simulation step         Convergence     Electron number  ETRS Iterations
 RTBSE|            4329     0.79645762E-007     0.10000000E+002                5
 RTBSE| Simulation step         Convergence     Electron number  ETRS Iterations
 RTBSE|            4330     0.16878127E-007     0.10000000E+002                6
 RTBSE| Simulation step         Convergence     Electron number  ETRS Iterations
 RTBSE|            4331     0.21407243E-007     0.10000000E+002                6
 RTBSE| Simulation step         Convergence     Electron number  ETRS Iterations
 RTBSE|            4332     0.25286144E-007     0.10000000E+002                6
 RTBSE| Simulation step         Convergence     Electron number  ETRS Iterations
 RTBSE|            4333     0.28372972E-007     0.10000000E+002                6
 RTBSE| Simulation step         Convergence     Electron number  ETRS Iterations
 RTBSE|            4334     0.30554379E-007     0.10000000E+002                6
 RTBSE| Simulation step         Convergence     Electron number  ETRS Iterations
 RTBSE|            4335     0.31856677E-007     0.10000000E+002                6
 RTBSE| Simulation step         Convergence     Electron number  ETRS Iterations
 RTBSE|            4336     0.32340006E-007     0.10000000E+002                6
 RTBSE| Simulation step         Convergence     Electron number  ETRS Iterations
 RTBSE|            4337     0.32132159E-007     0.10000000E+002                6
 RTBSE| Simulation step         Convergence     Electron number  ETRS Iterations
 RTBSE|            4338     0.31417836E-007     0.10000000E+002                6
 RTBSE| Simulation step         Convergence     Electron number  ETRS Iterations
 RTBSE|            4339     0.30397743E-007     0.10000000E+002                6
 RTBSE| Simulation step         Convergence     Electron number  ETRS Iterations
 RTBSE|            4340     0.30053765E-007     0.10000000E+002                6
 RTBSE| Simulation step         Convergence     Electron number  ETRS Iterations
 RTBSE|            4341     0.29878100E-007     0.10000000E+002                6
 RTBSE| Simulation step         Convergence     Electron number  ETRS Iterations
 RTBSE|            4342     0.29736043E-007     0.10000000E+002                6
 RTBSE| Simulation step         Convergence     Electron number  ETRS Iterations
 RTBSE|            4343     0.29680405E-007     0.10000000E+002                6
 RTBSE| Simulation step         Convergence     Electron number  ETRS Iterations
 RTBSE|            4344     0.29753272E-007     0.10000000E+002                6
 RTBSE| Simulation step         Convergence     Electron number  ETRS Iterations
 RTBSE|            4345     0.29849127E-007     0.10000000E+002                6
 RTBSE| Simulation step         Convergence     Electron number  ETRS Iterations
 RTBSE|            4346     0.29852594E-007     0.10000000E+002                6
 RTBSE| Simulation step         Convergence     Electron number  ETRS Iterations
 RTBSE|            4347     0.29566146E-007     0.10000000E+002                6
 RTBSE| Simulation step         Convergence     Electron number  ETRS Iterations
 RTBSE|            4348     0.28799904E-007     0.10000000E+002                6
 RTBSE| Simulation step         Convergence     Electron number  ETRS Iterations
 RTBSE|            4349     0.27365171E-007     0.10000000E+002                6
 RTBSE| Simulation step         Convergence     Electron number  ETRS Iterations
 RTBSE|            4350     0.25082656E-007     0.10000000E+002                6
 RTBSE| Simulation step         Convergence     Electron number  ETRS Iterations
 RTBSE|            4351     0.21842971E-007     0.10000000E+002                6
 RTBSE| Simulation step         Convergence     Electron number  ETRS Iterations
 RTBSE|            4352     0.17637055E-007     0.10000000E+002                6
 RTBSE| Simulation step         Convergence     Electron number  ETRS Iterations
 RTBSE|            4353     0.83767349E-007     0.10000000E+002                5
 RTBSE| Simulation step         Convergence     Electron number  ETRS Iterations
 RTBSE|            4354     0.68019308E-007     0.10000000E+002                5
 RTBSE| Simulation step         Convergence     Electron number  ETRS Iterations
 RTBSE|            4355     0.96355422E-007     0.10000000E+002                5
 RTBSE| Simulation step         Convergence     Electron number  ETRS Iterations
 RTBSE|            4356     0.19507492E-007     0.10000000E+002                6
 RTBSE| Simulation step         Convergence     Electron number  ETRS Iterations
 RTBSE|            4357     0.24263841E-007     0.10000000E+002                6
 RTBSE| Simulation step         Convergence     Electron number  ETRS Iterations
 RTBSE|            4358     0.28412965E-007     0.10000000E+002                6
 RTBSE| Simulation step         Convergence     Electron number  ETRS Iterations
 RTBSE|            4359     0.31715075E-007     0.10000000E+002                6
 RTBSE| Simulation step         Convergence     Electron number  ETRS Iterations
 RTBSE|            4360     0.34071881E-007     0.10000000E+002                6
 RTBSE| Simulation step         Convergence     Electron number  ETRS Iterations
 RTBSE|            4361     0.35515620E-007     0.10000000E+002                6
 RTBSE| Simulation step         Convergence     Electron number  ETRS Iterations
 RTBSE|            4362     0.36125984E-007     0.10000000E+002                6
 RTBSE| Simulation step         Convergence     Electron number  ETRS Iterations
 RTBSE|            4363     0.36063195E-007     0.10000000E+002                6
 RTBSE| Simulation step         Convergence     Electron number  ETRS Iterations
 RTBSE|            4364     0.35487691E-007     0.10000000E+002                6
 RTBSE| Simulation step         Convergence     Electron number  ETRS Iterations
 RTBSE|            4365     0.35571270E-007     0.10000000E+002                6
 RTBSE| Simulation step         Convergence     Electron number  ETRS Iterations
 RTBSE|            4366     0.35617121E-007     0.10000000E+002                6
 RTBSE| Simulation step         Convergence     Electron number  ETRS Iterations
 RTBSE|            4367     0.35509654E-007     0.10000000E+002                6
 RTBSE| Simulation step         Convergence     Electron number  ETRS Iterations
 RTBSE|            4368     0.35334028E-007     0.10000000E+002                6
 RTBSE| Simulation step         Convergence     Electron number  ETRS Iterations
 RTBSE|            4369     0.35136960E-007     0.10000000E+002                6
 RTBSE| Simulation step         Convergence     Electron number  ETRS Iterations
 RTBSE|            4370     0.34845059E-007     0.10000000E+002                6
 RTBSE| Simulation step         Convergence     Electron number  ETRS Iterations
 RTBSE|            4371     0.34376274E-007     0.10000000E+002                6
 RTBSE| Simulation step         Convergence     Electron number  ETRS Iterations
 RTBSE|            4372     0.33543032E-007     0.10000000E+002                6
 RTBSE| Simulation step         Convergence     Electron number  ETRS Iterations
 RTBSE|            4373     0.32200601E-007     0.10000000E+002                6
 RTBSE| Simulation step         Convergence     Electron number  ETRS Iterations
 RTBSE|            4374     0.30195931E-007     0.10000000E+002                6
 RTBSE| Simulation step         Convergence     Electron number  ETRS Iterations
 RTBSE|            4375     0.27430440E-007     0.10000000E+002                6
 RTBSE| Simulation step         Convergence     Electron number  ETRS Iterations
 RTBSE|            4376     0.23851908E-007     0.10000000E+002                6
 RTBSE| Simulation step         Convergence     Electron number  ETRS Iterations
 RTBSE|            4377     0.19498419E-007     0.10000000E+002                6
 RTBSE| Simulation step         Convergence     Electron number  ETRS Iterations
 RTBSE|            4378     0.90594813E-007     0.10000000E+002                5
 RTBSE| Simulation step         Convergence     Electron number  ETRS Iterations
 RTBSE|            4379     0.71728353E-007     0.10000000E+002                5
 RTBSE| Simulation step         Convergence     Electron number  ETRS Iterations
 RTBSE|            4380     0.75901736E-007     0.10000000E+002                5
 RTBSE| Simulation step         Convergence     Electron number  ETRS Iterations
 RTBSE|            4381     0.16387581E-007     0.10000000E+002                6
 RTBSE| Simulation step         Convergence     Electron number  ETRS Iterations
 RTBSE|            4382     0.20819442E-007     0.10000000E+002                6
 RTBSE| Simulation step         Convergence     Electron number  ETRS Iterations
 RTBSE|            4383     0.24659369E-007     0.10000000E+002                6
 RTBSE| Simulation step         Convergence     Electron number  ETRS Iterations
 RTBSE|            4384     0.27674119E-007     0.10000000E+002                6
 RTBSE| Simulation step         Convergence     Electron number  ETRS Iterations
 RTBSE|            4385     0.29827211E-007     0.10000000E+002                6
 RTBSE| Simulation step         Convergence     Electron number  ETRS Iterations
 RTBSE|            4386     0.31108722E-007     0.10000000E+002                6
 RTBSE| Simulation step         Convergence     Electron number  ETRS Iterations
 RTBSE|            4387     0.31588046E-007     0.10000000E+002                6
 RTBSE| Simulation step         Convergence     Electron number  ETRS Iterations
 RTBSE|            4388     0.31451593E-007     0.10000000E+002                6
 RTBSE| Simulation step         Convergence     Electron number  ETRS Iterations
 RTBSE|            4389     0.30864249E-007     0.10000000E+002                6
 RTBSE| Simulation step         Convergence     Electron number  ETRS Iterations
 RTBSE|            4390     0.30028163E-007     0.10000000E+002                6
 RTBSE| Simulation step         Convergence     Electron number  ETRS Iterations
 RTBSE|            4391     0.29399316E-007     0.10000000E+002                6
 RTBSE| Simulation step         Convergence     Electron number  ETRS Iterations
 RTBSE|            4392     0.29433592E-007     0.10000000E+002                6
 RTBSE| Simulation step         Convergence     Electron number  ETRS Iterations
 RTBSE|            4393     0.29533091E-007     0.10000000E+002                6
 RTBSE| Simulation step         Convergence     Electron number  ETRS Iterations
 RTBSE|            4394     0.29745623E-007     0.10000000E+002                6
 RTBSE| Simulation step         Convergence     Electron number  ETRS Iterations
 RTBSE|            4395     0.30063851E-007     0.10000000E+002                6
 RTBSE| Simulation step         Convergence     Electron number  ETRS Iterations
 RTBSE|            4396     0.30415162E-007     0.10000000E+002                6
 RTBSE| Simulation step         Convergence     Electron number  ETRS Iterations
 RTBSE|            4397     0.30633989E-007     0.10000000E+002                6
 RTBSE| Simulation step         Convergence     Electron number  ETRS Iterations
 RTBSE|            4398     0.30535156E-007     0.10000000E+002                6
 RTBSE| Simulation step         Convergence     Electron number  ETRS Iterations
 RTBSE|            4399     0.29903583E-007     0.10000000E+002                6
 RTBSE| Simulation step         Convergence     Electron number  ETRS Iterations
 RTBSE|            4400     0.28529441E-007     0.10000000E+002                6
 RTBSE| Simulation step         Convergence     Electron number  ETRS Iterations
 RTBSE|            4401     0.26248576E-007     0.10000000E+002                6
 RTBSE| Simulation step         Convergence     Electron number  ETRS Iterations
 RTBSE|            4402     0.22986002E-007     0.10000000E+002                6
 RTBSE| Simulation step         Convergence     Electron number  ETRS Iterations
 RTBSE|            4403     0.18717576E-007     0.10000000E+002                6
 RTBSE| Simulation step         Convergence     Electron number  ETRS Iterations
 RTBSE|            4404     0.87709051E-007     0.10000000E+002                5
 RTBSE| Simulation step         Convergence     Electron number  ETRS Iterations
 RTBSE|            4405     0.70838597E-007     0.10000000E+002                5
 RTBSE| Simulation step         Convergence     Electron number  ETRS Iterations
 RTBSE|            4406     0.92720441E-007     0.10000000E+002                5
 RTBSE| Simulation step         Convergence     Electron number  ETRS Iterations
 RTBSE|            4407     0.19205506E-007     0.10000000E+002                6
 RTBSE| Simulation step         Convergence     Electron number  ETRS Iterations
 RTBSE|            4408     0.24039465E-007     0.10000000E+002                6
 RTBSE| Simulation step         Convergence     Electron number  ETRS Iterations
 RTBSE|            4409     0.28233966E-007     0.10000000E+002                6
 RTBSE| Simulation step         Convergence     Electron number  ETRS Iterations
 RTBSE|            4410     0.31576835E-007     0.10000000E+002                6
 RTBSE| Simulation step         Convergence     Electron number  ETRS Iterations
 RTBSE|            4411     0.33973540E-007     0.10000000E+002                6
 RTBSE| Simulation step         Convergence     Electron number  ETRS Iterations
 RTBSE|            4412     0.35458844E-007     0.10000000E+002                6
 RTBSE| Simulation step         Convergence     Electron number  ETRS Iterations
 RTBSE|            4413     0.36078372E-007     0.10000000E+002                6
 RTBSE| Simulation step         Convergence     Electron number  ETRS Iterations
 RTBSE|            4414     0.36021149E-007     0.10000000E+002                6
 RTBSE| Simulation step         Convergence     Electron number  ETRS Iterations
 RTBSE|            4415     0.35480493E-007     0.10000000E+002                6
 RTBSE| Simulation step         Convergence     Electron number  ETRS Iterations
 RTBSE|            4416     0.35428075E-007     0.10000000E+002                6
 RTBSE| Simulation step         Convergence     Electron number  ETRS Iterations
 RTBSE|            4417     0.35528990E-007     0.10000000E+002                6
 RTBSE| Simulation step         Convergence     Electron number  ETRS Iterations
 RTBSE|            4418     0.35497458E-007     0.10000000E+002                6
 RTBSE| Simulation step         Convergence     Electron number  ETRS Iterations
 RTBSE|            4419     0.35410432E-007     0.10000000E+002                6
 RTBSE| Simulation step         Convergence     Electron number  ETRS Iterations
 RTBSE|            4420     0.35299216E-007     0.10000000E+002                6
 RTBSE| Simulation step         Convergence     Electron number  ETRS Iterations
 RTBSE|            4421     0.35099553E-007     0.10000000E+002                6
 RTBSE| Simulation step         Convergence     Electron number  ETRS Iterations
 RTBSE|            4422     0.34694264E-007     0.10000000E+002                6
 RTBSE| Simulation step         Convergence     Electron number  ETRS Iterations
 RTBSE|            4423     0.33939787E-007     0.10000000E+002                6
 RTBSE| Simulation step         Convergence     Electron number  ETRS Iterations
 RTBSE|            4424     0.32652454E-007     0.10000000E+002                6
 RTBSE| Simulation step         Convergence     Electron number  ETRS Iterations
 RTBSE|            4425     0.30697952E-007     0.10000000E+002                6
 RTBSE| Simulation step         Convergence     Electron number  ETRS Iterations
 RTBSE|            4426     0.27951197E-007     0.10000000E+002                6
 RTBSE| Simulation step         Convergence     Electron number  ETRS Iterations
 RTBSE|            4427     0.24362930E-007     0.10000000E+002                6
 RTBSE| Simulation step         Convergence     Electron number  ETRS Iterations
 RTBSE|            4428     0.19993530E-007     0.10000000E+002                6
 RTBSE| Simulation step         Convergence     Electron number  ETRS Iterations
 RTBSE|            4429     0.92296322E-007     0.10000000E+002                5
 RTBSE| Simulation step         Convergence     Electron number  ETRS Iterations
 RTBSE|            4430     0.73118596E-007     0.10000000E+002                5
 RTBSE| Simulation step         Convergence     Electron number  ETRS Iterations
 RTBSE|            4431     0.71653958E-007     0.10000000E+002                5
 RTBSE| Simulation step         Convergence     Electron number  ETRS Iterations
 RTBSE|            4432     0.15829072E-007     0.10000000E+002                6
 RTBSE| Simulation step         Convergence     Electron number  ETRS Iterations
 RTBSE|            4433     0.20232756E-007     0.10000000E+002                6
 RTBSE| Simulation step         Convergence     Electron number  ETRS Iterations
 RTBSE|            4434     0.24027138E-007     0.10000000E+002                6
 RTBSE| Simulation step         Convergence     Electron number  ETRS Iterations
 RTBSE|            4435     0.27007201E-007     0.10000000E+002                6
 RTBSE| Simulation step         Convergence     Electron number  ETRS Iterations
 RTBSE|            4436     0.29153273E-007     0.10000000E+002                6
 RTBSE| Simulation step         Convergence     Electron number  ETRS Iterations
 RTBSE|            4437     0.30455449E-007     0.10000000E+002                6
 RTBSE| Simulation step         Convergence     Electron number  ETRS Iterations
 RTBSE|            4438     0.31010639E-007     0.10000000E+002                6
 RTBSE| Simulation step         Convergence     Electron number  ETRS Iterations
 RTBSE|            4439     0.30954025E-007     0.10000000E+002                6
 RTBSE| Simulation step         Convergence     Electron number  ETRS Iterations
 RTBSE|            4440     0.30498494E-007     0.10000000E+002                6
 RTBSE| Simulation step         Convergence     Electron number  ETRS Iterations
 RTBSE|            4441     0.29814953E-007     0.10000000E+002                6
 RTBSE| Simulation step         Convergence     Electron number  ETRS Iterations
 RTBSE|            4442     0.29029761E-007     0.10000000E+002                6
 RTBSE| Simulation step         Convergence     Electron number  ETRS Iterations
 RTBSE|            4443     0.29234062E-007     0.10000000E+002                6
 RTBSE| Simulation step         Convergence     Electron number  ETRS Iterations
 RTBSE|            4444     0.29528839E-007     0.10000000E+002                6
 RTBSE| Simulation step         Convergence     Electron number  ETRS Iterations
 RTBSE|            4445     0.29949007E-007     0.10000000E+002                6
 RTBSE| Simulation step         Convergence     Electron number  ETRS Iterations
 RTBSE|            4446     0.30468905E-007     0.10000000E+002                6
 RTBSE| Simulation step         Convergence     Electron number  ETRS Iterations
 RTBSE|            4447     0.30980556E-007     0.10000000E+002                6
 RTBSE| Simulation step         Convergence     Electron number  ETRS Iterations
 RTBSE|            4448     0.31336314E-007     0.10000000E+002                6
 RTBSE| Simulation step         Convergence     Electron number  ETRS Iterations
 RTBSE|            4449     0.31326131E-007     0.10000000E+002                6
 RTBSE| Simulation step         Convergence     Electron number  ETRS Iterations
 RTBSE|            4450     0.30739080E-007     0.10000000E+002                6
 RTBSE| Simulation step         Convergence     Electron number  ETRS Iterations
 RTBSE|            4451     0.29363904E-007     0.10000000E+002                6
 RTBSE| Simulation step         Convergence     Electron number  ETRS Iterations
 RTBSE|            4452     0.27047225E-007     0.10000000E+002                6
 RTBSE| Simulation step         Convergence     Electron number  ETRS Iterations
 RTBSE|            4453     0.23705820E-007     0.10000000E+002                6
 RTBSE| Simulation step         Convergence     Electron number  ETRS Iterations
 RTBSE|            4454     0.19334383E-007     0.10000000E+002                6
 RTBSE| Simulation step         Convergence     Electron number  ETRS Iterations
 RTBSE|            4455     0.89614065E-007     0.10000000E+002                5
 RTBSE| Simulation step         Convergence     Electron number  ETRS Iterations
 RTBSE|            4456     0.71993242E-007     0.10000000E+002                5
 RTBSE| Simulation step         Convergence     Electron number  ETRS Iterations
 RTBSE|            4457     0.90721640E-007     0.10000000E+002                5
 RTBSE| Simulation step         Convergence     Electron number  ETRS Iterations
 RTBSE|            4458     0.18945478E-007     0.10000000E+002                6
 RTBSE| Simulation step         Convergence     Electron number  ETRS Iterations
 RTBSE|            4459     0.23777239E-007     0.10000000E+002                6
 RTBSE| Simulation step         Convergence     Electron number  ETRS Iterations
 RTBSE|            4460     0.27924087E-007     0.10000000E+002                6
 RTBSE| Simulation step         Convergence     Electron number  ETRS Iterations
 RTBSE|            4461     0.31212875E-007     0.10000000E+002                6
 RTBSE| Simulation step         Convergence     Electron number  ETRS Iterations
 RTBSE|            4462     0.33557983E-007     0.10000000E+002                6
 RTBSE| Simulation step         Convergence     Electron number  ETRS Iterations
 RTBSE|            4463     0.34976925E-007     0.10000000E+002                6
 RTBSE| Simulation step         Convergence     Electron number  ETRS Iterations
 RTBSE|            4464     0.35585321E-007     0.10000000E+002                6
 RTBSE| Simulation step         Convergence     Electron number  ETRS Iterations
 RTBSE|            4465     0.35569215E-007     0.10000000E+002                6
 RTBSE| Simulation step         Convergence     Electron number  ETRS Iterations
 RTBSE|            4466     0.35070628E-007     0.10000000E+002                6
 RTBSE| Simulation step         Convergence     Electron number  ETRS Iterations
 RTBSE|            4467     0.34837468E-007     0.10000000E+002                6
 RTBSE| Simulation step         Convergence     Electron number  ETRS Iterations
 RTBSE|            4468     0.35016144E-007     0.10000000E+002                6
 RTBSE| Simulation step         Convergence     Electron number  ETRS Iterations
 RTBSE|            4469     0.35094408E-007     0.10000000E+002                6
 RTBSE| Simulation step         Convergence     Electron number  ETRS Iterations
 RTBSE|            4470     0.35136210E-007     0.10000000E+002                6
 RTBSE| Simulation step         Convergence     Electron number  ETRS Iterations
 RTBSE|            4471     0.35172709E-007     0.10000000E+002                6
 RTBSE| Simulation step         Convergence     Electron number  ETRS Iterations
 RTBSE|            4472     0.35135366E-007     0.10000000E+002                6
 RTBSE| Simulation step         Convergence     Electron number  ETRS Iterations
 RTBSE|            4473     0.34895440E-007     0.10000000E+002                6
 RTBSE| Simulation step         Convergence     Electron number  ETRS Iterations
 RTBSE|            4474     0.34268670E-007     0.10000000E+002                6
 RTBSE| Simulation step         Convergence     Electron number  ETRS Iterations
 RTBSE|            4475     0.33106380E-007     0.10000000E+002                6
 RTBSE| Simulation step         Convergence     Electron number  ETRS Iterations
 RTBSE|            4476     0.31237640E-007     0.10000000E+002                6
 RTBSE| Simulation step         Convergence     Electron number  ETRS Iterations
 RTBSE|            4477     0.28547244E-007     0.10000000E+002                6
 RTBSE| Simulation step         Convergence     Electron number  ETRS Iterations
 RTBSE|            4478     0.25038489E-007     0.10000000E+002                6
 RTBSE| Simulation step         Convergence     Electron number  ETRS Iterations
 RTBSE|            4479     0.20705959E-007     0.10000000E+002                6
 RTBSE| Simulation step         Convergence     Electron number  ETRS Iterations
 RTBSE|            4480     0.95014956E-007     0.10000000E+002                5
 RTBSE| Simulation step         Convergence     Electron number  ETRS Iterations
 RTBSE|            4481     0.75352714E-007     0.10000000E+002                5
 RTBSE| Simulation step         Convergence     Electron number  ETRS Iterations
 RTBSE|            4482     0.66003296E-007     0.10000000E+002                5
 RTBSE| Simulation step         Convergence     Electron number  ETRS Iterations
 RTBSE|            4483     0.15145915E-007     0.10000000E+002                6
 RTBSE| Simulation step         Convergence     Electron number  ETRS Iterations
 RTBSE|            4484     0.19502990E-007     0.10000000E+002                6
 RTBSE| Simulation step         Convergence     Electron number  ETRS Iterations
 RTBSE|            4485     0.23279477E-007     0.10000000E+002                6
 RTBSE| Simulation step         Convergence     Electron number  ETRS Iterations
 RTBSE|            4486     0.26295471E-007     0.10000000E+002                6
 RTBSE| Simulation step         Convergence     Electron number  ETRS Iterations
 RTBSE|            4487     0.28483698E-007     0.10000000E+002                6
 RTBSE| Simulation step         Convergence     Electron number  ETRS Iterations
 RTBSE|            4488     0.29825927E-007     0.10000000E+002                6
 RTBSE| Simulation step         Convergence     Electron number  ETRS Iterations
 RTBSE|            4489     0.30435369E-007     0.10000000E+002                6
 RTBSE| Simulation step         Convergence     Electron number  ETRS Iterations
 RTBSE|            4490     0.30491477E-007     0.10000000E+002                6
 RTBSE| Simulation step         Convergence     Electron number  ETRS Iterations
 RTBSE|            4491     0.30141570E-007     0.10000000E+002                6
 RTBSE| Simulation step         Convergence     Electron number  ETRS Iterations
 RTBSE|            4492     0.29610352E-007     0.10000000E+002                6
 RTBSE| Simulation step         Convergence     Electron number  ETRS Iterations
 RTBSE|            4493     0.29006722E-007     0.10000000E+002                6
 RTBSE| Simulation step         Convergence     Electron number  ETRS Iterations
 RTBSE|            4494     0.28999864E-007     0.10000000E+002                6
 RTBSE| Simulation step         Convergence     Electron number  ETRS Iterations
 RTBSE|            4495     0.29474001E-007     0.10000000E+002                6
 RTBSE| Simulation step         Convergence     Electron number  ETRS Iterations
 RTBSE|            4496     0.30088907E-007     0.10000000E+002                6
 RTBSE| Simulation step         Convergence     Electron number  ETRS Iterations
 RTBSE|            4497     0.30787192E-007     0.10000000E+002                6
 RTBSE| Simulation step         Convergence     Electron number  ETRS Iterations
 RTBSE|            4498     0.31488263E-007     0.10000000E+002                6
 RTBSE| Simulation step         Convergence     Electron number  ETRS Iterations
 RTBSE|            4499     0.31980700E-007     0.10000000E+002                6
 RTBSE| Simulation step         Convergence     Electron number  ETRS Iterations
 RTBSE|            4500     0.32072804E-007     0.10000000E+002                6
 RTBSE| Simulation step         Convergence     Electron number  ETRS Iterations
 RTBSE|            4501     0.31537164E-007     0.10000000E+002                6
 RTBSE| Simulation step         Convergence     Electron number  ETRS Iterations
 RTBSE|            4502     0.30179226E-007     0.10000000E+002                6
 RTBSE| Simulation step         Convergence     Electron number  ETRS Iterations
 RTBSE|            4503     0.27839761E-007     0.10000000E+002                6
 RTBSE| Simulation step         Convergence     Electron number  ETRS Iterations
 RTBSE|            4504     0.24438314E-007     0.10000000E+002                6
 RTBSE| Simulation step         Convergence     Electron number  ETRS Iterations
 RTBSE|            4505     0.19996233E-007     0.10000000E+002                6
 RTBSE| Simulation step         Convergence     Electron number  ETRS Iterations
 RTBSE|            4506     0.91833678E-007     0.10000000E+002                5
 RTBSE| Simulation step         Convergence     Electron number  ETRS Iterations
 RTBSE|            4507     0.73502179E-007     0.10000000E+002                5
 RTBSE| Simulation step         Convergence     Electron number  ETRS Iterations
 RTBSE|            4508     0.87207101E-007     0.10000000E+002                5
 RTBSE| Simulation step         Convergence     Electron number  ETRS Iterations
 RTBSE|            4509     0.18516679E-007     0.10000000E+002                6
 RTBSE| Simulation step         Convergence     Electron number  ETRS Iterations
 RTBSE|            4510     0.23316361E-007     0.10000000E+002                6
 RTBSE| Simulation step         Convergence     Electron number  ETRS Iterations
 RTBSE|            4511     0.27412525E-007     0.10000000E+002                6
 RTBSE| Simulation step         Convergence     Electron number  ETRS Iterations
 RTBSE|            4512     0.30663101E-007     0.10000000E+002                6
 RTBSE| Simulation step         Convergence     Electron number  ETRS Iterations
 RTBSE|            4513     0.32987963E-007     0.10000000E+002                6
 RTBSE| Simulation step         Convergence     Electron number  ETRS Iterations
 RTBSE|            4514     0.34438022E-007     0.10000000E+002                6
 RTBSE| Simulation step         Convergence     Electron number  ETRS Iterations
 RTBSE|            4515     0.35056848E-007     0.10000000E+002                6
 RTBSE| Simulation step         Convergence     Electron number  ETRS Iterations
 RTBSE|            4516     0.35072813E-007     0.10000000E+002                6
 RTBSE| Simulation step         Convergence     Electron number  ETRS Iterations
 RTBSE|            4517     0.34666192E-007     0.10000000E+002                6
 RTBSE| Simulation step         Convergence     Electron number  ETRS Iterations
 RTBSE|            4518     0.34224747E-007     0.10000000E+002                6
 RTBSE| Simulation step         Convergence     Electron number  ETRS Iterations
 RTBSE|            4519     0.34525297E-007     0.10000000E+002                6
 RTBSE| Simulation step         Convergence     Electron number  ETRS Iterations
 RTBSE|            4520     0.34764722E-007     0.10000000E+002                6
 RTBSE| Simulation step         Convergence     Electron number  ETRS Iterations
 RTBSE|            4521     0.35012466E-007     0.10000000E+002                6
 RTBSE| Simulation step         Convergence     Electron number  ETRS Iterations
 RTBSE|            4522     0.35236048E-007     0.10000000E+002                6
 RTBSE| Simulation step         Convergence     Electron number  ETRS Iterations
 RTBSE|            4523     0.35397410E-007     0.10000000E+002                6
 RTBSE| Simulation step         Convergence     Electron number  ETRS Iterations
 RTBSE|            4524     0.35339856E-007     0.10000000E+002                6
 RTBSE| Simulation step         Convergence     Electron number  ETRS Iterations
 RTBSE|            4525     0.34889356E-007     0.10000000E+002                6
 RTBSE| Simulation step         Convergence     Electron number  ETRS Iterations
 RTBSE|            4526     0.33852911E-007     0.10000000E+002                6
 RTBSE| Simulation step         Convergence     Electron number  ETRS Iterations
 RTBSE|            4527     0.32082463E-007     0.10000000E+002                6
 RTBSE| Simulation step         Convergence     Electron number  ETRS Iterations
 RTBSE|            4528     0.29463656E-007     0.10000000E+002                6
 RTBSE| Simulation step         Convergence     Electron number  ETRS Iterations
 RTBSE|            4529     0.25962792E-007     0.10000000E+002                6
 RTBSE| Simulation step         Convergence     Electron number  ETRS Iterations
 RTBSE|            4530     0.21617546E-007     0.10000000E+002                6
 RTBSE| Simulation step         Convergence     Electron number  ETRS Iterations
 RTBSE|            4531     0.98637316E-007     0.10000000E+002                5
 RTBSE| Simulation step         Convergence     Electron number  ETRS Iterations
 RTBSE|            4532     0.78407336E-007     0.10000000E+002                5
 RTBSE| Simulation step         Convergence     Electron number  ETRS Iterations
 RTBSE|            4533     0.61839096E-007     0.10000000E+002                5
 RTBSE| Simulation step         Convergence     Electron number  ETRS Iterations
 RTBSE|            4534     0.14570329E-007     0.10000000E+002                6
 RTBSE| Simulation step         Convergence     Electron number  ETRS Iterations
 RTBSE|            4535     0.18984027E-007     0.10000000E+002                6
 RTBSE| Simulation step         Convergence     Electron number  ETRS Iterations
 RTBSE|            4536     0.22777410E-007     0.10000000E+002                6
 RTBSE| Simulation step         Convergence     Electron number  ETRS Iterations
 RTBSE|            4537     0.25834376E-007     0.10000000E+002                6
 RTBSE| Simulation step         Convergence     Electron number  ETRS Iterations
 RTBSE|            4538     0.28055418E-007     0.10000000E+002                6
 RTBSE| Simulation step         Convergence     Electron number  ETRS Iterations
 RTBSE|            4539     0.29458623E-007     0.10000000E+002                6
 RTBSE| Simulation step         Convergence     Electron number  ETRS Iterations
 RTBSE|            4540     0.30137937E-007     0.10000000E+002                6
 RTBSE| Simulation step         Convergence     Electron number  ETRS Iterations
 RTBSE|            4541     0.30281583E-007     0.10000000E+002                6
 RTBSE| Simulation step         Convergence     Electron number  ETRS Iterations
 RTBSE|            4542     0.30049931E-007     0.10000000E+002                6
 RTBSE| Simulation step         Convergence     Electron number  ETRS Iterations
 RTBSE|            4543     0.29625585E-007     0.10000000E+002                6
 RTBSE| Simulation step         Convergence     Electron number  ETRS Iterations
 RTBSE|            4544     0.29152655E-007     0.10000000E+002                6
 RTBSE| Simulation step         Convergence     Electron number  ETRS Iterations
 RTBSE|            4545     0.28984447E-007     0.10000000E+002                6
 RTBSE| Simulation step         Convergence     Electron number  ETRS Iterations
 RTBSE|            4546     0.29614156E-007     0.10000000E+002                6
 RTBSE| Simulation step         Convergence     Electron number  ETRS Iterations
 RTBSE|            4547     0.30365846E-007     0.10000000E+002                6
 RTBSE| Simulation step         Convergence     Electron number  ETRS Iterations
 RTBSE|            4548     0.31195262E-007     0.10000000E+002                6
 RTBSE| Simulation step         Convergence     Electron number  ETRS Iterations
 RTBSE|            4549     0.31977370E-007     0.10000000E+002                6
 RTBSE| Simulation step         Convergence     Electron number  ETRS Iterations
 RTBSE|            4550     0.32534394E-007     0.10000000E+002                6
 RTBSE| Simulation step         Convergence     Electron number  ETRS Iterations
 RTBSE|            4551     0.32663772E-007     0.10000000E+002                6
 RTBSE| Simulation step         Convergence     Electron number  ETRS Iterations
 RTBSE|            4552     0.32129444E-007     0.10000000E+002                6
 RTBSE| Simulation step         Convergence     Electron number  ETRS Iterations
 RTBSE|            4553     0.30735644E-007     0.10000000E+002                6
 RTBSE| Simulation step         Convergence     Electron number  ETRS Iterations
 RTBSE|            4554     0.28354295E-007     0.10000000E+002                6
 RTBSE| Simulation step         Convergence     Electron number  ETRS Iterations
 RTBSE|            4555     0.24899747E-007     0.10000000E+002                6
 RTBSE| Simulation step         Convergence     Electron number  ETRS Iterations
 RTBSE|            4556     0.20408896E-007     0.10000000E+002                6
 RTBSE| Simulation step         Convergence     Electron number  ETRS Iterations
 RTBSE|            4557     0.93064641E-007     0.10000000E+002                5
 RTBSE| Simulation step         Convergence     Electron number  ETRS Iterations
 RTBSE|            4558     0.74313196E-007     0.10000000E+002                5
 RTBSE| Simulation step         Convergence     Electron number  ETRS Iterations
 RTBSE|            4559     0.84638682E-007     0.10000000E+002                5
 RTBSE| Simulation step         Convergence     Electron number  ETRS Iterations
 RTBSE|            4560     0.18154429E-007     0.10000000E+002                6
 RTBSE| Simulation step         Convergence     Electron number  ETRS Iterations
 RTBSE|            4561     0.22876872E-007     0.10000000E+002                6
 RTBSE| Simulation step         Convergence     Electron number  ETRS Iterations
 RTBSE|            4562     0.26944145E-007     0.10000000E+002                6
 RTBSE| Simulation step         Convergence     Electron number  ETRS Iterations
 RTBSE|            4563     0.30132826E-007     0.10000000E+002                6
 RTBSE| Simulation step         Convergence     Electron number  ETRS Iterations
 RTBSE|            4564     0.32407210E-007     0.10000000E+002                6
 RTBSE| Simulation step         Convergence     Electron number  ETRS Iterations
 RTBSE|            4565     0.33824166E-007     0.10000000E+002                6
 RTBSE| Simulation step         Convergence     Electron number  ETRS Iterations
 RTBSE|            4566     0.34471060E-007     0.10000000E+002                6
 RTBSE| Simulation step         Convergence     Electron number  ETRS Iterations
 RTBSE|            4567     0.34545624E-007     0.10000000E+002                6
 RTBSE| Simulation step         Convergence     Electron number  ETRS Iterations
 RTBSE|            4568     0.34243389E-007     0.10000000E+002                6
 RTBSE| Simulation step         Convergence     Electron number  ETRS Iterations
 RTBSE|            4569     0.33733867E-007     0.10000000E+002                6
 RTBSE| Simulation step         Convergence     Electron number  ETRS Iterations
 RTBSE|            4570     0.34010219E-007     0.10000000E+002                6
 RTBSE| Simulation step         Convergence     Electron number  ETRS Iterations
 RTBSE|            4571     0.34424912E-007     0.10000000E+002                6
 RTBSE| Simulation step         Convergence     Electron number  ETRS Iterations
 RTBSE|            4572     0.34866636E-007     0.10000000E+002                6
 RTBSE| Simulation step         Convergence     Electron number  ETRS Iterations
 RTBSE|            4573     0.35324693E-007     0.10000000E+002                6
 RTBSE| Simulation step         Convergence     Electron number  ETRS Iterations
 RTBSE|            4574     0.35704168E-007     0.10000000E+002                6
 RTBSE| Simulation step         Convergence     Electron number  ETRS Iterations
 RTBSE|            4575     0.35831042E-007     0.10000000E+002                6
 RTBSE| Simulation step         Convergence     Electron number  ETRS Iterations
 RTBSE|            4576     0.35521717E-007     0.10000000E+002                6
 RTBSE| Simulation step         Convergence     Electron number  ETRS Iterations
 RTBSE|            4577     0.34605000E-007     0.10000000E+002                6
 RTBSE| Simulation step         Convergence     Electron number  ETRS Iterations
 RTBSE|            4578     0.32896920E-007     0.10000000E+002                6
 RTBSE| Simulation step         Convergence     Electron number  ETRS Iterations
 RTBSE|            4579     0.30296971E-007     0.10000000E+002                6
 RTBSE| Simulation step         Convergence     Electron number  ETRS Iterations
 RTBSE|            4580     0.26765969E-007     0.10000000E+002                6
 RTBSE| Simulation step         Convergence     Electron number  ETRS Iterations
 RTBSE|            4581     0.22367413E-007     0.10000000E+002                6
 RTBSE| Simulation step         Convergence     Electron number  ETRS Iterations
 RTBSE|            4582     0.17238763E-007     0.10000000E+002                6
 RTBSE| Simulation step         Convergence     Electron number  ETRS Iterations
 RTBSE|            4583     0.80588725E-007     0.10000000E+002                5
 RTBSE| Simulation step         Convergence     Electron number  ETRS Iterations
 RTBSE|            4584     0.63086261E-007     0.10000000E+002                5
 RTBSE| Simulation step         Convergence     Electron number  ETRS Iterations
 RTBSE|            4585     0.98919791E-007     0.10000000E+002                5
 RTBSE| Simulation step         Convergence     Electron number  ETRS Iterations
 RTBSE|            4586     0.18610885E-007     0.10000000E+002                6
 RTBSE| Simulation step         Convergence     Electron number  ETRS Iterations
 RTBSE|            4587     0.22401927E-007     0.10000000E+002                6
 RTBSE| Simulation step         Convergence     Electron number  ETRS Iterations
 RTBSE|            4588     0.25440370E-007     0.10000000E+002                6
 RTBSE| Simulation step         Convergence     Electron number  ETRS Iterations
 RTBSE|            4589     0.27653588E-007     0.10000000E+002                6
 RTBSE| Simulation step         Convergence     Electron number  ETRS Iterations
 RTBSE|            4590     0.29018802E-007     0.10000000E+002                6
 RTBSE| Simulation step         Convergence     Electron number  ETRS Iterations
 RTBSE|            4591     0.29730355E-007     0.10000000E+002                6
 RTBSE| Simulation step         Convergence     Electron number  ETRS Iterations
 RTBSE|            4592     0.29885045E-007     0.10000000E+002                6
 RTBSE| Simulation step         Convergence     Electron number  ETRS Iterations
 RTBSE|            4593     0.29697589E-007     0.10000000E+002                6
 RTBSE| Simulation step         Convergence     Electron number  ETRS Iterations
 RTBSE|            4594     0.29363466E-007     0.10000000E+002                6
 RTBSE| Simulation step         Convergence     Electron number  ETRS Iterations
 RTBSE|            4595     0.29004376E-007     0.10000000E+002                6
 RTBSE| Simulation step         Convergence     Electron number  ETRS Iterations
 RTBSE|            4596     0.28723803E-007     0.10000000E+002                6
 RTBSE| Simulation step         Convergence     Electron number  ETRS Iterations
 RTBSE|            4597     0.29418818E-007     0.10000000E+002                6
 RTBSE| Simulation step         Convergence     Electron number  ETRS Iterations
 RTBSE|            4598     0.30274784E-007     0.10000000E+002                6
 RTBSE| Simulation step         Convergence     Electron number  ETRS Iterations
 RTBSE|            4599     0.31213419E-007     0.10000000E+002                6
 RTBSE| Simulation step         Convergence     Electron number  ETRS Iterations
 RTBSE|            4600     0.32117073E-007     0.10000000E+002                6
 RTBSE| Simulation step         Convergence     Electron number  ETRS Iterations
 RTBSE|            4601     0.32782211E-007     0.10000000E+002                6
 RTBSE| Simulation step         Convergence     Electron number  ETRS Iterations
 RTBSE|            4602     0.32975487E-007     0.10000000E+002                6
 RTBSE| Simulation step         Convergence     Electron number  ETRS Iterations
 RTBSE|            4603     0.32495078E-007     0.10000000E+002                6
 RTBSE| Simulation step         Convergence     Electron number  ETRS Iterations
 RTBSE|            4604     0.31152714E-007     0.10000000E+002                6
 RTBSE| Simulation step         Convergence     Electron number  ETRS Iterations
 RTBSE|            4605     0.28791669E-007     0.10000000E+002                6
 RTBSE| Simulation step         Convergence     Electron number  ETRS Iterations
 RTBSE|            4606     0.25379569E-007     0.10000000E+002                6
 RTBSE| Simulation step         Convergence     Electron number  ETRS Iterations
 RTBSE|            4607     0.20919277E-007     0.10000000E+002                6
 RTBSE| Simulation step         Convergence     Electron number  ETRS Iterations
 RTBSE|            4608     0.94708077E-007     0.10000000E+002                5
 RTBSE| Simulation step         Convergence     Electron number  ETRS Iterations
 RTBSE|            4609     0.75573347E-007     0.10000000E+002                5
 RTBSE| Simulation step         Convergence     Electron number  ETRS Iterations
 RTBSE|            4610     0.79823733E-007     0.10000000E+002                5
 RTBSE| Simulation step         Convergence     Electron number  ETRS Iterations
 RTBSE|            4611     0.17500430E-007     0.10000000E+002                6
 RTBSE| Simulation step         Convergence     Electron number  ETRS Iterations
 RTBSE|            4612     0.22176560E-007     0.10000000E+002                6
 RTBSE| Simulation step         Convergence     Electron number  ETRS Iterations
 RTBSE|            4613     0.26161749E-007     0.10000000E+002                6
 RTBSE| Simulation step         Convergence     Electron number  ETRS Iterations
 RTBSE|            4614     0.29326191E-007     0.10000000E+002                6
 RTBSE| Simulation step         Convergence     Electron number  ETRS Iterations
 RTBSE|            4615     0.31588796E-007     0.10000000E+002                6
 RTBSE| Simulation step         Convergence     Electron number  ETRS Iterations
 RTBSE|            4616     0.33028837E-007     0.10000000E+002                6
 RTBSE| Simulation step         Convergence     Electron number  ETRS Iterations
 RTBSE|            4617     0.33747604E-007     0.10000000E+002                6
 RTBSE| Simulation step         Convergence     Electron number  ETRS Iterations
 RTBSE|            4618     0.33929439E-007     0.10000000E+002                6
 RTBSE| Simulation step         Convergence     Electron number  ETRS Iterations
 RTBSE|            4619     0.33774526E-007     0.10000000E+002                6
 RTBSE| Simulation step         Convergence     Electron number  ETRS Iterations
 RTBSE|            4620     0.33446801E-007     0.10000000E+002                6
 RTBSE| Simulation step         Convergence     Electron number  ETRS Iterations
 RTBSE|            4621     0.33507787E-007     0.10000000E+002                6
 RTBSE| Simulation step         Convergence     Electron number  ETRS Iterations
 RTBSE|            4622     0.34139069E-007     0.10000000E+002                6
 RTBSE| Simulation step         Convergence     Electron number  ETRS Iterations
 RTBSE|            4623     0.34815314E-007     0.10000000E+002                6
 RTBSE| Simulation step         Convergence     Electron number  ETRS Iterations
 RTBSE|            4624     0.35492108E-007     0.10000000E+002                6
 RTBSE| Simulation step         Convergence     Electron number  ETRS Iterations
 RTBSE|            4625     0.36065460E-007     0.10000000E+002                6
 RTBSE| Simulation step         Convergence     Electron number  ETRS Iterations
 RTBSE|            4626     0.36370750E-007     0.10000000E+002                6
 RTBSE| Simulation step         Convergence     Electron number  ETRS Iterations
 RTBSE|            4627     0.36221784E-007     0.10000000E+002                6
 RTBSE| Simulation step         Convergence     Electron number  ETRS Iterations
 RTBSE|            4628     0.35386258E-007     0.10000000E+002                6
 RTBSE| Simulation step         Convergence     Electron number  ETRS Iterations
 RTBSE|            4629     0.33736030E-007     0.10000000E+002                6
 RTBSE| Simulation step         Convergence     Electron number  ETRS Iterations
 RTBSE|            4630     0.31133291E-007     0.10000000E+002                6
 RTBSE| Simulation step         Convergence     Electron number  ETRS Iterations
 RTBSE|            4631     0.27586705E-007     0.10000000E+002                6
 RTBSE| Simulation step         Convergence     Electron number  ETRS Iterations
 RTBSE|            4632     0.23145414E-007     0.10000000E+002                6
 RTBSE| Simulation step         Convergence     Electron number  ETRS Iterations
 RTBSE|            4633     0.17966183E-007     0.10000000E+002                6
 RTBSE| Simulation step         Convergence     Electron number  ETRS Iterations
 RTBSE|            4634     0.83029893E-007     0.10000000E+002                5
 RTBSE| Simulation step         Convergence     Electron number  ETRS Iterations
 RTBSE|            4635     0.64613896E-007     0.10000000E+002                5
 RTBSE| Simulation step         Convergence     Electron number  ETRS Iterations
 RTBSE|            4636     0.94596598E-007     0.10000000E+002                5
 RTBSE| Simulation step         Convergence     Electron number  ETRS Iterations
 RTBSE|            4637     0.18087272E-007     0.10000000E+002                6
 RTBSE| Simulation step         Convergence     Electron number  ETRS Iterations
 RTBSE|            4638     0.21883611E-007     0.10000000E+002                6
 RTBSE| Simulation step         Convergence     Electron number  ETRS Iterations
 RTBSE|            4639     0.24912074E-007     0.10000000E+002                6
 RTBSE| Simulation step         Convergence     Electron number  ETRS Iterations
 RTBSE|            4640     0.27121425E-007     0.10000000E+002                6
 RTBSE| Simulation step         Convergence     Electron number  ETRS Iterations
 RTBSE|            4641     0.28505184E-007     0.10000000E+002                6
 RTBSE| Simulation step         Convergence     Electron number  ETRS Iterations
 RTBSE|            4642     0.29261193E-007     0.10000000E+002                6
 RTBSE| Simulation step         Convergence     Electron number  ETRS Iterations
 RTBSE|            4643     0.29475406E-007     0.10000000E+002                6
 RTBSE| Simulation step         Convergence     Electron number  ETRS Iterations
 RTBSE|            4644     0.29376360E-007     0.10000000E+002                6
 RTBSE| Simulation step         Convergence     Electron number  ETRS Iterations
 RTBSE|            4645     0.29118916E-007     0.10000000E+002                6
 RTBSE| Simulation step         Convergence     Electron number  ETRS Iterations
 RTBSE|            4646     0.28859383E-007     0.10000000E+002                6
 RTBSE| Simulation step         Convergence     Electron number  ETRS Iterations
 RTBSE|            4647     0.28697658E-007     0.10000000E+002                6
 RTBSE| Simulation step         Convergence     Electron number  ETRS Iterations
 RTBSE|            4648     0.29205900E-007     0.10000000E+002                6
 RTBSE| Simulation step         Convergence     Electron number  ETRS Iterations
 RTBSE|            4649     0.30211620E-007     0.10000000E+002                6
 RTBSE| Simulation step         Convergence     Electron number  ETRS Iterations
 RTBSE|            4650     0.31298196E-007     0.10000000E+002                6
 RTBSE| Simulation step         Convergence     Electron number  ETRS Iterations
 RTBSE|            4651     0.32305878E-007     0.10000000E+002                6
 RTBSE| Simulation step         Convergence     Electron number  ETRS Iterations
 RTBSE|            4652     0.33093404E-007     0.10000000E+002                6
 RTBSE| Simulation step         Convergence     Electron number  ETRS Iterations
 RTBSE|            4653     0.33405675E-007     0.10000000E+002                6
 RTBSE| Simulation step         Convergence     Electron number  ETRS Iterations
 RTBSE|            4654     0.33028995E-007     0.10000000E+002                6
 RTBSE| Simulation step         Convergence     Electron number  ETRS Iterations
 RTBSE|            4655     0.31747743E-007     0.10000000E+002                6
 RTBSE| Simulation step         Convergence     Electron number  ETRS Iterations
 RTBSE|            4656     0.29437709E-007     0.10000000E+002                6
 RTBSE| Simulation step         Convergence     Electron number  ETRS Iterations
 RTBSE|            4657     0.26039933E-007     0.10000000E+002                6
 RTBSE| Simulation step         Convergence     Electron number  ETRS Iterations
 RTBSE|            4658     0.21591226E-007     0.10000000E+002                6
 RTBSE| Simulation step         Convergence     Electron number  ETRS Iterations
 RTBSE|            4659     0.97239028E-007     0.10000000E+002                5
 RTBSE| Simulation step         Convergence     Electron number  ETRS Iterations
 RTBSE|            4660     0.77704286E-007     0.10000000E+002                5
 RTBSE| Simulation step         Convergence     Electron number  ETRS Iterations
 RTBSE|            4661     0.74124590E-007     0.10000000E+002                5
 RTBSE| Simulation step         Convergence     Electron number  ETRS Iterations
 RTBSE|            4662     0.16813737E-007     0.10000000E+002                6
 RTBSE| Simulation step         Convergence     Electron number  ETRS Iterations
 RTBSE|            4663     0.21478588E-007     0.10000000E+002                6
 RTBSE| Simulation step         Convergence     Electron number  ETRS Iterations
 RTBSE|            4664     0.25468848E-007     0.10000000E+002                6
 RTBSE| Simulation step         Convergence     Electron number  ETRS Iterations
 RTBSE|            4665     0.28640764E-007     0.10000000E+002                6
 RTBSE| Simulation step         Convergence     Electron number  ETRS Iterations
 RTBSE|            4666     0.30965733E-007     0.10000000E+002                6
 RTBSE| Simulation step         Convergence     Electron number  ETRS Iterations
 RTBSE|            4667     0.32490702E-007     0.10000000E+002                6
 RTBSE| Simulation step         Convergence     Electron number  ETRS Iterations
 RTBSE|            4668     0.33320089E-007     0.10000000E+002                6
 RTBSE| Simulation step         Convergence     Electron number  ETRS Iterations
 RTBSE|            4669     0.33653249E-007     0.10000000E+002                6
 RTBSE| Simulation step         Convergence     Electron number  ETRS Iterations
 RTBSE|            4670     0.33651773E-007     0.10000000E+002                6
 RTBSE| Simulation step         Convergence     Electron number  ETRS Iterations
 RTBSE|            4671     0.33538060E-007     0.10000000E+002                6
 RTBSE| Simulation step         Convergence     Electron number  ETRS Iterations
 RTBSE|            4672     0.33425864E-007     0.10000000E+002                6
 RTBSE| Simulation step         Convergence     Electron number  ETRS Iterations
 RTBSE|            4673     0.34255136E-007     0.10000000E+002                6
 RTBSE| Simulation step         Convergence     Electron number  ETRS Iterations
 RTBSE|            4674     0.35122246E-007     0.10000000E+002                6
 RTBSE| Simulation step         Convergence     Electron number  ETRS Iterations
 RTBSE|            4675     0.35972091E-007     0.10000000E+002                6
 RTBSE| Simulation step         Convergence     Electron number  ETRS Iterations
 RTBSE|            4676     0.36695996E-007     0.10000000E+002                6
 RTBSE| Simulation step         Convergence     Electron number  ETRS Iterations
 RTBSE|            4677     0.37089381E-007     0.10000000E+002                6
 RTBSE| Simulation step         Convergence     Electron number  ETRS Iterations
 RTBSE|            4678     0.36962898E-007     0.10000000E+002                6
 RTBSE| Simulation step         Convergence     Electron number  ETRS Iterations
 RTBSE|            4679     0.36122504E-007     0.10000000E+002                6
 RTBSE| Simulation step         Convergence     Electron number  ETRS Iterations
 RTBSE|            4680     0.34420466E-007     0.10000000E+002                6
 RTBSE| Simulation step         Convergence     Electron number  ETRS Iterations
 RTBSE|            4681     0.31768519E-007     0.10000000E+002                6
 RTBSE| Simulation step         Convergence     Electron number  ETRS Iterations
 RTBSE|            4682     0.28138709E-007     0.10000000E+002                6
 RTBSE| Simulation step         Convergence     Electron number  ETRS Iterations
 RTBSE|            4683     0.23606620E-007     0.10000000E+002                6
 RTBSE| Simulation step         Convergence     Electron number  ETRS Iterations
 RTBSE|            4684     0.18342775E-007     0.10000000E+002                6
 RTBSE| Simulation step         Convergence     Electron number  ETRS Iterations
 RTBSE|            4685     0.84082114E-007     0.10000000E+002                5
 RTBSE| Simulation step         Convergence     Electron number  ETRS Iterations
 RTBSE|            4686     0.65188238E-007     0.10000000E+002                5
 RTBSE| Simulation step         Convergence     Electron number  ETRS Iterations
 RTBSE|            4687     0.92194783E-007     0.10000000E+002                5
 RTBSE| Simulation step         Convergence     Electron number  ETRS Iterations
 RTBSE|            4688     0.17727896E-007     0.10000000E+002                6
 RTBSE| Simulation step         Convergence     Electron number  ETRS Iterations
 RTBSE|            4689     0.21491878E-007     0.10000000E+002                6
 RTBSE| Simulation step         Convergence     Electron number  ETRS Iterations
 RTBSE|            4690     0.24466168E-007     0.10000000E+002                6
 RTBSE| Simulation step         Convergence     Electron number  ETRS Iterations
 RTBSE|            4691     0.26592746E-007     0.10000000E+002                6
 RTBSE| Simulation step         Convergence     Electron number  ETRS Iterations
 RTBSE|            4692     0.27965716E-007     0.10000000E+002                6
 RTBSE| Simulation step         Convergence     Electron number  ETRS Iterations
 RTBSE|            4693     0.28680828E-007     0.10000000E+002                6
 RTBSE| Simulation step         Convergence     Electron number  ETRS Iterations
 RTBSE|            4694     0.28909254E-007     0.10000000E+002                6
 RTBSE| Simulation step         Convergence     Electron number  ETRS Iterations
 RTBSE|            4695     0.28878693E-007     0.10000000E+002                6
 RTBSE| Simulation step         Convergence     Electron number  ETRS Iterations
 RTBSE|            4696     0.28698781E-007     0.10000000E+002                6
 RTBSE| Simulation step         Convergence     Electron number  ETRS Iterations
 RTBSE|            4697     0.28569301E-007     0.10000000E+002                6
 RTBSE| Simulation step         Convergence     Electron number  ETRS Iterations
 RTBSE|            4698     0.28550119E-007     0.10000000E+002                6
 RTBSE| Simulation step         Convergence     Electron number  ETRS Iterations
 RTBSE|            4699     0.28848792E-007     0.10000000E+002                6
 RTBSE| Simulation step         Convergence     Electron number  ETRS Iterations
 RTBSE|            4700     0.29998639E-007     0.10000000E+002                6
 RTBSE| Simulation step         Convergence     Electron number  ETRS Iterations
 RTBSE|            4701     0.31236661E-007     0.10000000E+002                6
 RTBSE| Simulation step         Convergence     Electron number  ETRS Iterations
 RTBSE|            4702     0.32424242E-007     0.10000000E+002                6
 RTBSE| Simulation step         Convergence     Electron number  ETRS Iterations
 RTBSE|            4703     0.33353516E-007     0.10000000E+002                6
 RTBSE| Simulation step         Convergence     Electron number  ETRS Iterations
 RTBSE|            4704     0.33795799E-007     0.10000000E+002                6
 RTBSE| Simulation step         Convergence     Electron number  ETRS Iterations
 RTBSE|            4705     0.33521497E-007     0.10000000E+002                6
 RTBSE| Simulation step         Convergence     Electron number  ETRS Iterations
 RTBSE|            4706     0.32315205E-007     0.10000000E+002                6
 RTBSE| Simulation step         Convergence     Electron number  ETRS Iterations
 RTBSE|            4707     0.30064522E-007     0.10000000E+002                6
 RTBSE| Simulation step         Convergence     Electron number  ETRS Iterations
 RTBSE|            4708     0.26720483E-007     0.10000000E+002                6
 RTBSE| Simulation step         Convergence     Electron number  ETRS Iterations
 RTBSE|            4709     0.22322649E-007     0.10000000E+002                6
 RTBSE| Simulation step         Convergence     Electron number  ETRS Iterations
 RTBSE|            4710     0.17017170E-007     0.10000000E+002                6
 RTBSE| Simulation step         Convergence     Electron number  ETRS Iterations
 RTBSE|            4711     0.80010776E-007     0.10000000E+002                5
 RTBSE| Simulation step         Convergence     Electron number  ETRS Iterations
 RTBSE|            4712     0.68806579E-007     0.10000000E+002                5
 RTBSE| Simulation step         Convergence     Electron number  ETRS Iterations
 RTBSE|            4713     0.16215305E-007     0.10000000E+002                6
 RTBSE| Simulation step         Convergence     Electron number  ETRS Iterations
 RTBSE|            4714     0.20858675E-007     0.10000000E+002                6
 RTBSE| Simulation step         Convergence     Electron number  ETRS Iterations
 RTBSE|            4715     0.24871738E-007     0.10000000E+002                6
 RTBSE| Simulation step         Convergence     Electron number  ETRS Iterations
 RTBSE|            4716     0.28090224E-007     0.10000000E+002                6
 RTBSE| Simulation step         Convergence     Electron number  ETRS Iterations
 RTBSE|            4717     0.30468911E-007     0.10000000E+002                6
 RTBSE| Simulation step         Convergence     Electron number  ETRS Iterations
 RTBSE|            4718     0.32051685E-007     0.10000000E+002                6
 RTBSE| Simulation step         Convergence     Electron number  ETRS Iterations
 RTBSE|            4719     0.32977499E-007     0.10000000E+002                6
 RTBSE| Simulation step         Convergence     Electron number  ETRS Iterations
 RTBSE|            4720     0.33397200E-007     0.10000000E+002                6
 RTBSE| Simulation step         Convergence     Electron number  ETRS Iterations
 RTBSE|            4721     0.33508442E-007     0.10000000E+002                6
 RTBSE| Simulation step         Convergence     Electron number  ETRS Iterations
 RTBSE|            4722     0.33488590E-007     0.10000000E+002                6
 RTBSE| Simulation step         Convergence     Electron number  ETRS Iterations
 RTBSE|            4723     0.33402754E-007     0.10000000E+002                6
 RTBSE| Simulation step         Convergence     Electron number  ETRS Iterations
 RTBSE|            4724     0.34216726E-007     0.10000000E+002                6
 RTBSE| Simulation step         Convergence     Electron number  ETRS Iterations
 RTBSE|            4725     0.35184563E-007     0.10000000E+002                6
 RTBSE| Simulation step         Convergence     Electron number  ETRS Iterations
 RTBSE|            4726     0.36138757E-007     0.10000000E+002                6
 RTBSE| Simulation step         Convergence     Electron number  ETRS Iterations
 RTBSE|            4727     0.36925651E-007     0.10000000E+002                6
 RTBSE| Simulation step         Convergence     Electron number  ETRS Iterations
 RTBSE|            4728     0.37373706E-007     0.10000000E+002                6
 RTBSE| Simulation step         Convergence     Electron number  ETRS Iterations
 RTBSE|            4729     0.37283308E-007     0.10000000E+002                6
 RTBSE| Simulation step         Convergence     Electron number  ETRS Iterations
 RTBSE|            4730     0.36467877E-007     0.10000000E+002                6
 RTBSE| Simulation step         Convergence     Electron number  ETRS Iterations
 RTBSE|            4731     0.34767938E-007     0.10000000E+002                6
 RTBSE| Simulation step         Convergence     Electron number  ETRS Iterations
 RTBSE|            4732     0.32083955E-007     0.10000000E+002                6
 RTBSE| Simulation step         Convergence     Electron number  ETRS Iterations
 RTBSE|            4733     0.28429458E-007     0.10000000E+002                6
 RTBSE| Simulation step         Convergence     Electron number  ETRS Iterations
 RTBSE|            4734     0.23892843E-007     0.10000000E+002                6
 RTBSE| Simulation step         Convergence     Electron number  ETRS Iterations
 RTBSE|            4735     0.18651887E-007     0.10000000E+002                6
 RTBSE| Simulation step         Convergence     Electron number  ETRS Iterations
 RTBSE|            4736     0.84855852E-007     0.10000000E+002                5
 RTBSE| Simulation step         Convergence     Electron number  ETRS Iterations
 RTBSE|            4737     0.65529604E-007     0.10000000E+002                5
 RTBSE| Simulation step         Convergence     Electron number  ETRS Iterations
 RTBSE|            4738     0.87887728E-007     0.10000000E+002                5
 RTBSE| Simulation step         Convergence     Electron number  ETRS Iterations
 RTBSE|            4739     0.17098071E-007     0.10000000E+002                6
 RTBSE| Simulation step         Convergence     Electron number  ETRS Iterations
 RTBSE|            4740     0.20739456E-007     0.10000000E+002                6
 RTBSE| Simulation step         Convergence     Electron number  ETRS Iterations
 RTBSE|            4741     0.23625109E-007     0.10000000E+002                6
 RTBSE| Simulation step         Convergence     Electron number  ETRS Iterations
 RTBSE|            4742     0.25729506E-007     0.10000000E+002                6
 RTBSE| Simulation step         Convergence     Electron number  ETRS Iterations
 RTBSE|            4743     0.27071371E-007     0.10000000E+002                6
 RTBSE| Simulation step         Convergence     Electron number  ETRS Iterations
 RTBSE|            4744     0.27816268E-007     0.10000000E+002                6
 RTBSE| Simulation step         Convergence     Electron number  ETRS Iterations
 RTBSE|            4745     0.28108415E-007     0.10000000E+002                6
 RTBSE| Simulation step         Convergence     Electron number  ETRS Iterations
 RTBSE|            4746     0.28158552E-007     0.10000000E+002                6
 RTBSE| Simulation step         Convergence     Electron number  ETRS Iterations
 RTBSE|            4747     0.28150705E-007     0.10000000E+002                6
 RTBSE| Simulation step         Convergence     Electron number  ETRS Iterations
 RTBSE|            4748     0.28199816E-007     0.10000000E+002                6
 RTBSE| Simulation step         Convergence     Electron number  ETRS Iterations
 RTBSE|            4749     0.28380947E-007     0.10000000E+002                6
 RTBSE| Simulation step         Convergence     Electron number  ETRS Iterations
 RTBSE|            4750     0.28700728E-007     0.10000000E+002                6
 RTBSE| Simulation step         Convergence     Electron number  ETRS Iterations
 RTBSE|            4751     0.29829889E-007     0.10000000E+002                6
 RTBSE| Simulation step         Convergence     Electron number  ETRS Iterations
 RTBSE|            4752     0.31278665E-007     0.10000000E+002                6
 RTBSE| Simulation step         Convergence     Electron number  ETRS Iterations
 RTBSE|            4753     0.32657461E-007     0.10000000E+002                6
 RTBSE| Simulation step         Convergence     Electron number  ETRS Iterations
 RTBSE|            4754     0.33765501E-007     0.10000000E+002                6
 RTBSE| Simulation step         Convergence     Electron number  ETRS Iterations
 RTBSE|            4755     0.34355500E-007     0.10000000E+002                6
 RTBSE| Simulation step         Convergence     Electron number  ETRS Iterations
 RTBSE|            4756     0.34191919E-007     0.10000000E+002                6
 RTBSE| Simulation step         Convergence     Electron number  ETRS Iterations
 RTBSE|            4757     0.33112758E-007     0.10000000E+002                6
 RTBSE| Simulation step         Convergence     Electron number  ETRS Iterations
 RTBSE|            4758     0.30924962E-007     0.10000000E+002                6
 RTBSE| Simulation step         Convergence     Electron number  ETRS Iterations
 RTBSE|            4759     0.27603164E-007     0.10000000E+002                6
 RTBSE| Simulation step         Convergence     Electron number  ETRS Iterations
 RTBSE|            4760     0.23203486E-007     0.10000000E+002                6
 RTBSE| Simulation step         Convergence     Electron number  ETRS Iterations
 RTBSE|            4761     0.17891281E-007     0.10000000E+002                6
 RTBSE| Simulation step         Convergence     Electron number  ETRS Iterations
 RTBSE|            4762     0.82889995E-007     0.10000000E+002                5
 RTBSE| Simulation step         Convergence     Electron number  ETRS Iterations
 RTBSE|            4763     0.66163765E-007     0.10000000E+002                5
 RTBSE| Simulation step         Convergence     Electron number  ETRS Iterations
 RTBSE|            4764     0.15627159E-007     0.10000000E+002                6
 RTBSE| Simulation step         Convergence     Electron number  ETRS Iterations
 RTBSE|            4765     0.20252298E-007     0.10000000E+002                6
 RTBSE| Simulation step         Convergence     Electron number  ETRS Iterations
 RTBSE|            4766     0.24311152E-007     0.10000000E+002                6
 RTBSE| Simulation step         Convergence     Electron number  ETRS Iterations
 RTBSE|            4767     0.27552966E-007     0.10000000E+002                6
 RTBSE| Simulation step         Convergence     Electron number  ETRS Iterations
 RTBSE|            4768     0.29968012E-007     0.10000000E+002                6
 RTBSE| Simulation step         Convergence     Electron number  ETRS Iterations
 RTBSE|            4769     0.31629452E-007     0.10000000E+002                6
 RTBSE| Simulation step         Convergence     Electron number  ETRS Iterations
 RTBSE|            4770     0.32609685E-007     0.10000000E+002                6
 RTBSE| Simulation step         Convergence     Electron number  ETRS Iterations
 RTBSE|            4771     0.33163467E-007     0.10000000E+002                6
 RTBSE| Simulation step         Convergence     Electron number  ETRS Iterations
 RTBSE|            4772     0.33369804E-007     0.10000000E+002                6
 RTBSE| Simulation step         Convergence     Electron number  ETRS Iterations
 RTBSE|            4773     0.33441114E-007     0.10000000E+002                6
 RTBSE| Simulation step         Convergence     Electron number  ETRS Iterations
 RTBSE|            4774     0.33506586E-007     0.10000000E+002                6
 RTBSE| Simulation step         Convergence     Electron number  ETRS Iterations
 RTBSE|            4775     0.34160850E-007     0.10000000E+002                6
 RTBSE| Simulation step         Convergence     Electron number  ETRS Iterations
 RTBSE|            4776     0.35252961E-007     0.10000000E+002                6
 RTBSE| Simulation step         Convergence     Electron number  ETRS Iterations
 RTBSE|            4777     0.36290706E-007     0.10000000E+002                6
 RTBSE| Simulation step         Convergence     Electron number  ETRS Iterations
 RTBSE|            4778     0.37161953E-007     0.10000000E+002                6
 RTBSE| Simulation step         Convergence     Electron number  ETRS Iterations
 RTBSE|            4779     0.37684823E-007     0.10000000E+002                6
 RTBSE| Simulation step         Convergence     Electron number  ETRS Iterations
 RTBSE|            4780     0.37635261E-007     0.10000000E+002                6
 RTBSE| Simulation step         Convergence     Electron number  ETRS Iterations
 RTBSE|            4781     0.36829064E-007     0.10000000E+002                6
 RTBSE| Simulation step         Convergence     Electron number  ETRS Iterations
 RTBSE|            4782     0.35130418E-007     0.10000000E+002                6
 RTBSE| Simulation step         Convergence     Electron number  ETRS Iterations
 RTBSE|            4783     0.32464616E-007     0.10000000E+002                6
 RTBSE| Simulation step         Convergence     Electron number  ETRS Iterations
 RTBSE|            4784     0.28839504E-007     0.10000000E+002                6
 RTBSE| Simulation step         Convergence     Electron number  ETRS Iterations
 RTBSE|            4785     0.24314087E-007     0.10000000E+002                6
 RTBSE| Simulation step         Convergence     Electron number  ETRS Iterations
 RTBSE|            4786     0.19096304E-007     0.10000000E+002                6
 RTBSE| Simulation step         Convergence     Electron number  ETRS Iterations
 RTBSE|            4787     0.86233145E-007     0.10000000E+002                5
 RTBSE| Simulation step         Convergence     Electron number  ETRS Iterations
 RTBSE|            4788     0.66512001E-007     0.10000000E+002                5
 RTBSE| Simulation step         Convergence     Electron number  ETRS Iterations
 RTBSE|            4789     0.82104588E-007     0.10000000E+002                5
 RTBSE| Simulation step         Convergence     Electron number  ETRS Iterations
 RTBSE|            4790     0.16288065E-007     0.10000000E+002                6
 RTBSE| Simulation step         Convergence     Electron number  ETRS Iterations
 RTBSE|            4791     0.19877364E-007     0.10000000E+002                6
 RTBSE| Simulation step         Convergence     Electron number  ETRS Iterations
 RTBSE|            4792     0.22739240E-007     0.10000000E+002                6
 RTBSE| Simulation step         Convergence     Electron number  ETRS Iterations
 RTBSE|            4793     0.24842634E-007     0.10000000E+002                6
 RTBSE| Simulation step         Convergence     Electron number  ETRS Iterations
 RTBSE|            4794     0.26237261E-007     0.10000000E+002                6
 RTBSE| Simulation step         Convergence     Electron number  ETRS Iterations
 RTBSE|            4795     0.27041380E-007     0.10000000E+002                6
 RTBSE| Simulation step         Convergence     Electron number  ETRS Iterations
 RTBSE|            4796     0.27481039E-007     0.10000000E+002                6
 RTBSE| Simulation step         Convergence     Electron number  ETRS Iterations
 RTBSE|            4797     0.27710306E-007     0.10000000E+002                6
 RTBSE| Simulation step         Convergence     Electron number  ETRS Iterations
 RTBSE|            4798     0.27897572E-007     0.10000000E+002                6
 RTBSE| Simulation step         Convergence     Electron number  ETRS Iterations
 RTBSE|            4799     0.28149678E-007     0.10000000E+002                6
 RTBSE| Simulation step         Convergence     Electron number  ETRS Iterations
 RTBSE|            4800     0.28558703E-007     0.10000000E+002                6
 RTBSE| Simulation step         Convergence     Electron number  ETRS Iterations
 RTBSE|            4801     0.29068009E-007     0.10000000E+002                6
 RTBSE| Simulation step         Convergence     Electron number  ETRS Iterations
 RTBSE|            4802     0.30003069E-007     0.10000000E+002                6
 RTBSE| Simulation step         Convergence     Electron number  ETRS Iterations
 RTBSE|            4803     0.31663386E-007     0.10000000E+002                6
 RTBSE| Simulation step         Convergence     Electron number  ETRS Iterations
 RTBSE|            4804     0.33226439E-007     0.10000000E+002                6
 RTBSE| Simulation step         Convergence     Electron number  ETRS Iterations
 RTBSE|            4805     0.34490903E-007     0.10000000E+002                6
 RTBSE| Simulation step         Convergence     Electron number  ETRS Iterations
 RTBSE|            4806     0.35182543E-007     0.10000000E+002                6
 RTBSE| Simulation step         Convergence     Electron number  ETRS Iterations
 RTBSE|            4807     0.35078188E-007     0.10000000E+002                6
 RTBSE| Simulation step         Convergence     Electron number  ETRS Iterations
 RTBSE|            4808     0.33975409E-007     0.10000000E+002                6
 RTBSE| Simulation step         Convergence     Electron number  ETRS Iterations
 RTBSE|            4809     0.31752889E-007     0.10000000E+002                6
 RTBSE| Simulation step         Convergence     Electron number  ETRS Iterations
 RTBSE|            4810     0.28371633E-007     0.10000000E+002                6
 RTBSE| Simulation step         Convergence     Electron number  ETRS Iterations
 RTBSE|            4811     0.23888798E-007     0.10000000E+002                6
 RTBSE| Simulation step         Convergence     Electron number  ETRS Iterations
 RTBSE|            4812     0.18466927E-007     0.10000000E+002                6
 RTBSE| Simulation step         Convergence     Electron number  ETRS Iterations
 RTBSE|            4813     0.84662322E-007     0.10000000E+002                5
 RTBSE| Simulation step         Convergence     Electron number  ETRS Iterations
 RTBSE|            4814     0.67123883E-007     0.10000000E+002                5
 RTBSE| Simulation step         Convergence     Electron number  ETRS Iterations
 RTBSE|            4815     0.15392768E-007     0.10000000E+002                6
 RTBSE| Simulation step         Convergence     Electron number  ETRS Iterations
 RTBSE|            4816     0.20019375E-007     0.10000000E+002                6
 RTBSE| Simulation step         Convergence     Electron number  ETRS Iterations
 RTBSE|            4817     0.24067707E-007     0.10000000E+002                6
 RTBSE| Simulation step         Convergence     Electron number  ETRS Iterations
 RTBSE|            4818     0.27293858E-007     0.10000000E+002                6
 RTBSE| Simulation step         Convergence     Electron number  ETRS Iterations
 RTBSE|            4819     0.29676974E-007     0.10000000E+002                6
 RTBSE| Simulation step         Convergence     Electron number  ETRS Iterations
 RTBSE|            4820     0.31317193E-007     0.10000000E+002                6
 RTBSE| Simulation step         Convergence     Electron number  ETRS Iterations
 RTBSE|            4821     0.32274865E-007     0.10000000E+002                6
 RTBSE| Simulation step         Convergence     Electron number  ETRS Iterations
 RTBSE|            4822     0.32802980E-007     0.10000000E+002                6
 RTBSE| Simulation step         Convergence     Electron number  ETRS Iterations
 RTBSE|            4823     0.33042205E-007     0.10000000E+002                6
 RTBSE| Simulation step         Convergence     Electron number  ETRS Iterations
 RTBSE|            4824     0.33168271E-007     0.10000000E+002                6
 RTBSE| Simulation step         Convergence     Electron number  ETRS Iterations
 RTBSE|            4825     0.33269445E-007     0.10000000E+002                6
 RTBSE| Simulation step         Convergence     Electron number  ETRS Iterations
 RTBSE|            4826     0.33785427E-007     0.10000000E+002                6
 RTBSE| Simulation step         Convergence     Electron number  ETRS Iterations
 RTBSE|            4827     0.34945693E-007     0.10000000E+002                6
 RTBSE| Simulation step         Convergence     Electron number  ETRS Iterations
 RTBSE|            4828     0.36064065E-007     0.10000000E+002                6
 RTBSE| Simulation step         Convergence     Electron number  ETRS Iterations
 RTBSE|            4829     0.37012411E-007     0.10000000E+002                6
 RTBSE| Simulation step         Convergence     Electron number  ETRS Iterations
 RTBSE|            4830     0.37623586E-007     0.10000000E+002                6
 RTBSE| Simulation step         Convergence     Electron number  ETRS Iterations
 RTBSE|            4831     0.37666271E-007     0.10000000E+002                6
 RTBSE| Simulation step         Convergence     Electron number  ETRS Iterations
 RTBSE|            4832     0.36948348E-007     0.10000000E+002                6
 RTBSE| Simulation step         Convergence     Electron number  ETRS Iterations
 RTBSE|            4833     0.35344892E-007     0.10000000E+002                6
 RTBSE| Simulation step         Convergence     Electron number  ETRS Iterations
 RTBSE|            4834     0.32759254E-007     0.10000000E+002                6
 RTBSE| Simulation step         Convergence     Electron number  ETRS Iterations
 RTBSE|            4835     0.29191489E-007     0.10000000E+002                6
 RTBSE| Simulation step         Convergence     Electron number  ETRS Iterations
 RTBSE|            4836     0.24783894E-007     0.10000000E+002                6
 RTBSE| Simulation step         Convergence     Electron number  ETRS Iterations
 RTBSE|            4837     0.19655822E-007     0.10000000E+002                6
 RTBSE| Simulation step         Convergence     Electron number  ETRS Iterations
 RTBSE|            4838     0.88335542E-007     0.10000000E+002                5
 RTBSE| Simulation step         Convergence     Electron number  ETRS Iterations
 RTBSE|            4839     0.68303342E-007     0.10000000E+002                5
 RTBSE| Simulation step         Convergence     Electron number  ETRS Iterations
 RTBSE|            4840     0.75359590E-007     0.10000000E+002                5
 RTBSE| Simulation step         Convergence     Electron number  ETRS Iterations
 RTBSE|            4841     0.15443362E-007     0.10000000E+002                6
 RTBSE| Simulation step         Convergence     Electron number  ETRS Iterations
 RTBSE|            4842     0.18994183E-007     0.10000000E+002                6
 RTBSE| Simulation step         Convergence     Electron number  ETRS Iterations
 RTBSE|            4843     0.21845392E-007     0.10000000E+002                6
 RTBSE| Simulation step         Convergence     Electron number  ETRS Iterations
 RTBSE|            4844     0.24002986E-007     0.10000000E+002                6
 RTBSE| Simulation step         Convergence     Electron number  ETRS Iterations
 RTBSE|            4845     0.25508991E-007     0.10000000E+002                6
 RTBSE| Simulation step         Convergence     Electron number  ETRS Iterations
 RTBSE|            4846     0.26441381E-007     0.10000000E+002                6
 RTBSE| Simulation step         Convergence     Electron number  ETRS Iterations
 RTBSE|            4847     0.27022338E-007     0.10000000E+002                6
 RTBSE| Simulation step         Convergence     Electron number  ETRS Iterations
 RTBSE|            4848     0.27403851E-007     0.10000000E+002                6
 RTBSE| Simulation step         Convergence     Electron number  ETRS Iterations
 RTBSE|            4849     0.27779728E-007     0.10000000E+002                6
 RTBSE| Simulation step         Convergence     Electron number  ETRS Iterations
 RTBSE|            4850     0.28217011E-007     0.10000000E+002                6
 RTBSE| Simulation step         Convergence     Electron number  ETRS Iterations
 RTBSE|            4851     0.28788900E-007     0.10000000E+002                6
 RTBSE| Simulation step         Convergence     Electron number  ETRS Iterations
 RTBSE|            4852     0.29465576E-007     0.10000000E+002                6
 RTBSE| Simulation step         Convergence     Electron number  ETRS Iterations
 RTBSE|            4853     0.30223182E-007     0.10000000E+002                6
 RTBSE| Simulation step         Convergence     Electron number  ETRS Iterations
 RTBSE|            4854     0.32021388E-007     0.10000000E+002                6
 RTBSE| Simulation step         Convergence     Electron number  ETRS Iterations
 RTBSE|            4855     0.33694092E-007     0.10000000E+002                6
 RTBSE| Simulation step         Convergence     Electron number  ETRS Iterations
 RTBSE|            4856     0.34998940E-007     0.10000000E+002                6
 RTBSE| Simulation step         Convergence     Electron number  ETRS Iterations
 RTBSE|            4857     0.35723332E-007     0.10000000E+002                6
 RTBSE| Simulation step         Convergence     Electron number  ETRS Iterations
 RTBSE|            4858     0.35586984E-007     0.10000000E+002                6
 RTBSE| Simulation step         Convergence     Electron number  ETRS Iterations
 RTBSE|            4859     0.34446728E-007     0.10000000E+002                6
 RTBSE| Simulation step         Convergence     Electron number  ETRS Iterations
 RTBSE|            4860     0.32153499E-007     0.10000000E+002                6
 RTBSE| Simulation step         Convergence     Electron number  ETRS Iterations
 RTBSE|            4861     0.28690664E-007     0.10000000E+002                6
 RTBSE| Simulation step         Convergence     Electron number  ETRS Iterations
 RTBSE|            4862     0.24151847E-007     0.10000000E+002                6
 RTBSE| Simulation step         Convergence     Electron number  ETRS Iterations
 RTBSE|            4863     0.18688674E-007     0.10000000E+002                6
 RTBSE| Simulation step         Convergence     Electron number  ETRS Iterations
 RTBSE|            4864     0.85151815E-007     0.10000000E+002                5
 RTBSE| Simulation step         Convergence     Electron number  ETRS Iterations
 RTBSE|            4865     0.67201603E-007     0.10000000E+002                5
 RTBSE| Simulation step         Convergence     Electron number  ETRS Iterations
 RTBSE|            4866     0.14982496E-007     0.10000000E+002                6
 RTBSE| Simulation step         Convergence     Electron number  ETRS Iterations
 RTBSE|            4867     0.19525586E-007     0.10000000E+002                6
 RTBSE| Simulation step         Convergence     Electron number  ETRS Iterations
 RTBSE|            4868     0.23450225E-007     0.10000000E+002                6
 RTBSE| Simulation step         Convergence     Electron number  ETRS Iterations
 RTBSE|            4869     0.26592572E-007     0.10000000E+002                6
 RTBSE| Simulation step         Convergence     Electron number  ETRS Iterations
 RTBSE|            4870     0.28897473E-007     0.10000000E+002                6
 RTBSE| Simulation step         Convergence     Electron number  ETRS Iterations
 RTBSE|            4871     0.30483591E-007     0.10000000E+002                6
 RTBSE| Simulation step         Convergence     Electron number  ETRS Iterations
 RTBSE|            4872     0.31477159E-007     0.10000000E+002                6
 RTBSE| Simulation step         Convergence     Electron number  ETRS Iterations
 RTBSE|            4873     0.32050124E-007     0.10000000E+002                6
 RTBSE| Simulation step         Convergence     Electron number  ETRS Iterations
 RTBSE|            4874     0.32371258E-007     0.10000000E+002                6
 RTBSE| Simulation step         Convergence     Electron number  ETRS Iterations
 RTBSE|            4875     0.32585281E-007     0.10000000E+002                6
 RTBSE| Simulation step         Convergence     Electron number  ETRS Iterations
 RTBSE|            4876     0.32819119E-007     0.10000000E+002                6
 RTBSE| Simulation step         Convergence     Electron number  ETRS Iterations
 RTBSE|            4877     0.33128132E-007     0.10000000E+002                6
 RTBSE| Simulation step         Convergence     Electron number  ETRS Iterations
 RTBSE|            4878     0.34448854E-007     0.10000000E+002                6
 RTBSE| Simulation step         Convergence     Electron number  ETRS Iterations
 RTBSE|            4879     0.35744508E-007     0.10000000E+002                6
 RTBSE| Simulation step         Convergence     Electron number  ETRS Iterations
 RTBSE|            4880     0.36872856E-007     0.10000000E+002                6
 RTBSE| Simulation step         Convergence     Electron number  ETRS Iterations
 RTBSE|            4881     0.37646488E-007     0.10000000E+002                6
 RTBSE| Simulation step         Convergence     Electron number  ETRS Iterations
 RTBSE|            4882     0.37851464E-007     0.10000000E+002                6
 RTBSE| Simulation step         Convergence     Electron number  ETRS Iterations
 RTBSE|            4883     0.37299596E-007     0.10000000E+002                6
 RTBSE| Simulation step         Convergence     Electron number  ETRS Iterations
 RTBSE|            4884     0.35828703E-007     0.10000000E+002                6
 RTBSE| Simulation step         Convergence     Electron number  ETRS Iterations
 RTBSE|            4885     0.33371463E-007     0.10000000E+002                6
 RTBSE| Simulation step         Convergence     Electron number  ETRS Iterations
 RTBSE|            4886     0.29936334E-007     0.10000000E+002                6
 RTBSE| Simulation step         Convergence     Electron number  ETRS Iterations
 RTBSE|            4887     0.25604385E-007     0.10000000E+002                6
 RTBSE| Simulation step         Convergence     Electron number  ETRS Iterations
 RTBSE|            4888     0.20552857E-007     0.10000000E+002                6
 RTBSE| Simulation step         Convergence     Electron number  ETRS Iterations
 RTBSE|            4889     0.91799213E-007     0.10000000E+002                5
 RTBSE| Simulation step         Convergence     Electron number  ETRS Iterations
 RTBSE|            4890     0.71177660E-007     0.10000000E+002                5
 RTBSE| Simulation step         Convergence     Electron number  ETRS Iterations
 RTBSE|            4891     0.67764270E-007     0.10000000E+002                5
 RTBSE| Simulation step         Convergence     Electron number  ETRS Iterations
 RTBSE|            4892     0.14541911E-007     0.10000000E+002                6
 RTBSE| Simulation step         Convergence     Electron number  ETRS Iterations
 RTBSE|            4893     0.18114698E-007     0.10000000E+002                6
 RTBSE| Simulation step         Convergence     Electron number  ETRS Iterations
 RTBSE|            4894     0.21045290E-007     0.10000000E+002                6
 RTBSE| Simulation step         Convergence     Electron number  ETRS Iterations
 RTBSE|            4895     0.23287209E-007     0.10000000E+002                6
 RTBSE| Simulation step         Convergence     Electron number  ETRS Iterations
 RTBSE|            4896     0.24870024E-007     0.10000000E+002                6
 RTBSE| Simulation step         Convergence     Electron number  ETRS Iterations
 RTBSE|            4897     0.25946137E-007     0.10000000E+002                6
 RTBSE| Simulation step         Convergence     Electron number  ETRS Iterations
 RTBSE|            4898     0.26675675E-007     0.10000000E+002                6
 RTBSE| Simulation step         Convergence     Electron number  ETRS Iterations
 RTBSE|            4899     0.27244347E-007     0.10000000E+002                6
 RTBSE| Simulation step         Convergence     Electron number  ETRS Iterations
 RTBSE|            4900     0.27785446E-007     0.10000000E+002                6
 RTBSE| Simulation step         Convergence     Electron number  ETRS Iterations
 RTBSE|            4901     0.28394859E-007     0.10000000E+002                6
 RTBSE| Simulation step         Convergence     Electron number  ETRS Iterations
 RTBSE|            4902     0.29106958E-007     0.10000000E+002                6
 RTBSE| Simulation step         Convergence     Electron number  ETRS Iterations
 RTBSE|            4903     0.29911688E-007     0.10000000E+002                6
 RTBSE| Simulation step         Convergence     Electron number  ETRS Iterations
 RTBSE|            4904     0.30671458E-007     0.10000000E+002                6
 RTBSE| Simulation step         Convergence     Electron number  ETRS Iterations
 RTBSE|            4905     0.32416460E-007     0.10000000E+002                6
 RTBSE| Simulation step         Convergence     Electron number  ETRS Iterations
 RTBSE|            4906     0.34141610E-007     0.10000000E+002                6
 RTBSE| Simulation step         Convergence     Electron number  ETRS Iterations
 RTBSE|            4907     0.35481436E-007     0.10000000E+002                6
 RTBSE| Simulation step         Convergence     Electron number  ETRS Iterations
 RTBSE|            4908     0.36173206E-007     0.10000000E+002                6
 RTBSE| Simulation step         Convergence     Electron number  ETRS Iterations
 RTBSE|            4909     0.36017007E-007     0.10000000E+002                6
 RTBSE| Simulation step         Convergence     Electron number  ETRS Iterations
 RTBSE|            4910     0.34814929E-007     0.10000000E+002                6
 RTBSE| Simulation step         Convergence     Electron number  ETRS Iterations
 RTBSE|            4911     0.32484842E-007     0.10000000E+002                6
 RTBSE| Simulation step         Convergence     Electron number  ETRS Iterations
 RTBSE|            4912     0.29001020E-007     0.10000000E+002                6
 RTBSE| Simulation step         Convergence     Electron number  ETRS Iterations
 RTBSE|            4913     0.24441256E-007     0.10000000E+002                6
 RTBSE| Simulation step         Convergence     Electron number  ETRS Iterations
 RTBSE|            4914     0.18985487E-007     0.10000000E+002                6
 RTBSE| Simulation step         Convergence     Electron number  ETRS Iterations
 RTBSE|            4915     0.86140047E-007     0.10000000E+002                5
 RTBSE| Simulation step         Convergence     Electron number  ETRS Iterations
 RTBSE|            4916     0.67528023E-007     0.10000000E+002                5
 RTBSE| Simulation step         Convergence     Electron number  ETRS Iterations
 RTBSE|            4917     0.99433059E-007     0.10000000E+002                5
 RTBSE| Simulation step         Convergence     Electron number  ETRS Iterations
 RTBSE|            4918     0.18877704E-007     0.10000000E+002                6
 RTBSE| Simulation step         Convergence     Electron number  ETRS Iterations
 RTBSE|            4919     0.22720285E-007     0.10000000E+002                6
 RTBSE| Simulation step         Convergence     Electron number  ETRS Iterations
 RTBSE|            4920     0.25804766E-007     0.10000000E+002                6
 RTBSE| Simulation step         Convergence     Electron number  ETRS Iterations
 RTBSE|            4921     0.28100848E-007     0.10000000E+002                6
 RTBSE| Simulation step         Convergence     Electron number  ETRS Iterations
 RTBSE|            4922     0.29705739E-007     0.10000000E+002                6
 RTBSE| Simulation step         Convergence     Electron number  ETRS Iterations
 RTBSE|            4923     0.30713465E-007     0.10000000E+002                6
 RTBSE| Simulation step         Convergence     Electron number  ETRS Iterations
 RTBSE|            4924     0.31361409E-007     0.10000000E+002                6
 RTBSE| Simulation step         Convergence     Electron number  ETRS Iterations
 RTBSE|            4925     0.31807832E-007     0.10000000E+002                6
 RTBSE| Simulation step         Convergence     Electron number  ETRS Iterations
 RTBSE|            4926     0.32217784E-007     0.10000000E+002                6
 RTBSE| Simulation step         Convergence     Electron number  ETRS Iterations
 RTBSE|            4927     0.32634801E-007     0.10000000E+002                6
 RTBSE| Simulation step         Convergence     Electron number  ETRS Iterations
 RTBSE|            4928     0.33103809E-007     0.10000000E+002                6
 RTBSE| Simulation step         Convergence     Electron number  ETRS Iterations
 RTBSE|            4929     0.34221320E-007     0.10000000E+002                6
 RTBSE| Simulation step         Convergence     Electron number  ETRS Iterations
 RTBSE|            4930     0.35726454E-007     0.10000000E+002                6
 RTBSE| Simulation step         Convergence     Electron number  ETRS Iterations
 RTBSE|            4931     0.37075393E-007     0.10000000E+002                6
 RTBSE| Simulation step         Convergence     Electron number  ETRS Iterations
 RTBSE|            4932     0.38043921E-007     0.10000000E+002                6
 RTBSE| Simulation step         Convergence     Electron number  ETRS Iterations
 RTBSE|            4933     0.38419329E-007     0.10000000E+002                6
 RTBSE| Simulation step         Convergence     Electron number  ETRS Iterations
 RTBSE|            4934     0.37985811E-007     0.10000000E+002                6
 RTBSE| Simulation step         Convergence     Electron number  ETRS Iterations
 RTBSE|            4935     0.36606117E-007     0.10000000E+002                6
 RTBSE| Simulation step         Convergence     Electron number  ETRS Iterations
 RTBSE|            4936     0.34202896E-007     0.10000000E+002                6
 RTBSE| Simulation step         Convergence     Electron number  ETRS Iterations
 RTBSE|            4937     0.30784435E-007     0.10000000E+002                6
 RTBSE| Simulation step         Convergence     Electron number  ETRS Iterations
 RTBSE|            4938     0.26434972E-007     0.10000000E+002                6
 RTBSE| Simulation step         Convergence     Electron number  ETRS Iterations
 RTBSE|            4939     0.21378353E-007     0.10000000E+002                6
 RTBSE| Simulation step         Convergence     Electron number  ETRS Iterations
 RTBSE|            4940     0.94981564E-007     0.10000000E+002                5
 RTBSE| Simulation step         Convergence     Electron number  ETRS Iterations
 RTBSE|            4941     0.73791097E-007     0.10000000E+002                5
 RTBSE| Simulation step         Convergence     Electron number  ETRS Iterations
 RTBSE|            4942     0.62926913E-007     0.10000000E+002                5
 RTBSE| Simulation step         Convergence     Electron number  ETRS Iterations
 RTBSE|            4943     0.99349527E-007     0.10000000E+002                5
 RTBSE| Simulation step         Convergence     Electron number  ETRS Iterations
 RTBSE|            4944     0.17609019E-007     0.10000000E+002                6
 RTBSE| Simulation step         Convergence     Electron number  ETRS Iterations
 RTBSE|            4945     0.20584590E-007     0.10000000E+002                6
 RTBSE| Simulation step         Convergence     Electron number  ETRS Iterations
 RTBSE|            4946     0.22877343E-007     0.10000000E+002                6
 RTBSE| Simulation step         Convergence     Electron number  ETRS Iterations
 RTBSE|            4947     0.24542673E-007     0.10000000E+002                6
 RTBSE| Simulation step         Convergence     Electron number  ETRS Iterations
 RTBSE|            4948     0.25698675E-007     0.10000000E+002                6
 RTBSE| Simulation step         Convergence     Electron number  ETRS Iterations
 RTBSE|            4949     0.26527624E-007     0.10000000E+002                6
 RTBSE| Simulation step         Convergence     Electron number  ETRS Iterations
 RTBSE|            4950     0.27187900E-007     0.10000000E+002                6
 RTBSE| Simulation step         Convergence     Electron number  ETRS Iterations
 RTBSE|            4951     0.27770223E-007     0.10000000E+002                6
 RTBSE| Simulation step         Convergence     Electron number  ETRS Iterations
 RTBSE|            4952     0.28466488E-007     0.10000000E+002                6
 RTBSE| Simulation step         Convergence     Electron number  ETRS Iterations
 RTBSE|            4953     0.29220220E-007     0.10000000E+002                6
 RTBSE| Simulation step         Convergence     Electron number  ETRS Iterations
 RTBSE|            4954     0.30058467E-007     0.10000000E+002                6
 RTBSE| Simulation step         Convergence     Electron number  ETRS Iterations
 RTBSE|            4955     0.30863436E-007     0.10000000E+002                6
 RTBSE| Simulation step         Convergence     Electron number  ETRS Iterations
 RTBSE|            4956     0.32457704E-007     0.10000000E+002                6
 RTBSE| Simulation step         Convergence     Electron number  ETRS Iterations
 RTBSE|            4957     0.34171531E-007     0.10000000E+002                6
 RTBSE| Simulation step         Convergence     Electron number  ETRS Iterations
 RTBSE|            4958     0.35495696E-007     0.10000000E+002                6
 RTBSE| Simulation step         Convergence     Electron number  ETRS Iterations
 RTBSE|            4959     0.36195300E-007     0.10000000E+002                6
 RTBSE| Simulation step         Convergence     Electron number  ETRS Iterations
 RTBSE|            4960     0.36031294E-007     0.10000000E+002                6
 RTBSE| Simulation step         Convergence     Electron number  ETRS Iterations
 RTBSE|            4961     0.34840746E-007     0.10000000E+002                6
 RTBSE| Simulation step         Convergence     Electron number  ETRS Iterations
 RTBSE|            4962     0.32523017E-007     0.10000000E+002                6
 RTBSE| Simulation step         Convergence     Electron number  ETRS Iterations
 RTBSE|            4963     0.29071158E-007     0.10000000E+002                6
 RTBSE| Simulation step         Convergence     Electron number  ETRS Iterations
 RTBSE|            4964     0.24596364E-007     0.10000000E+002                6
 RTBSE| Simulation step         Convergence     Electron number  ETRS Iterations
 RTBSE|            4965     0.19261104E-007     0.10000000E+002                6
 RTBSE| Simulation step         Convergence     Electron number  ETRS Iterations
 RTBSE|            4966     0.87076622E-007     0.10000000E+002                5
 RTBSE| Simulation step         Convergence     Electron number  ETRS Iterations
 RTBSE|            4967     0.68021846E-007     0.10000000E+002                5
 RTBSE| Simulation step         Convergence     Electron number  ETRS Iterations
 RTBSE|            4968     0.93326540E-007     0.10000000E+002                5
 RTBSE| Simulation step         Convergence     Electron number  ETRS Iterations
 RTBSE|            4969     0.18055409E-007     0.10000000E+002                6
 RTBSE| Simulation step         Convergence     Electron number  ETRS Iterations
 RTBSE|            4970     0.21831171E-007     0.10000000E+002                6
 RTBSE| Simulation step         Convergence     Electron number  ETRS Iterations
 RTBSE|            4971     0.24872670E-007     0.10000000E+002                6
 RTBSE| Simulation step         Convergence     Electron number  ETRS Iterations
 RTBSE|            4972     0.27189898E-007     0.10000000E+002                6
 RTBSE| Simulation step         Convergence     Electron number  ETRS Iterations
 RTBSE|            4973     0.28808449E-007     0.10000000E+002                6
 RTBSE| Simulation step         Convergence     Electron number  ETRS Iterations
 RTBSE|            4974     0.29929688E-007     0.10000000E+002                6
 RTBSE| Simulation step         Convergence     Electron number  ETRS Iterations
 RTBSE|            4975     0.30738577E-007     0.10000000E+002                6
 RTBSE| Simulation step         Convergence     Electron number  ETRS Iterations
 RTBSE|            4976     0.31334498E-007     0.10000000E+002                6
 RTBSE| Simulation step         Convergence     Electron number  ETRS Iterations
 RTBSE|            4977     0.31918366E-007     0.10000000E+002                6
 RTBSE| Simulation step         Convergence     Electron number  ETRS Iterations
 RTBSE|            4978     0.32529391E-007     0.10000000E+002                6
 RTBSE| Simulation step         Convergence     Electron number  ETRS Iterations
 RTBSE|            4979     0.33181133E-007     0.10000000E+002                6
 RTBSE| Simulation step         Convergence     Electron number  ETRS Iterations
 RTBSE|            4980     0.34129082E-007     0.10000000E+002                6
 RTBSE| Simulation step         Convergence     Electron number  ETRS Iterations
 RTBSE|            4981     0.35844944E-007     0.10000000E+002                6
 RTBSE| Simulation step         Convergence     Electron number  ETRS Iterations
 RTBSE|            4982     0.37354555E-007     0.10000000E+002                6
 RTBSE| Simulation step         Convergence     Electron number  ETRS Iterations
 RTBSE|            4983     0.38432958E-007     0.10000000E+002                6
 RTBSE| Simulation step         Convergence     Electron number  ETRS Iterations
 RTBSE|            4984     0.38881510E-007     0.10000000E+002                6
 RTBSE| Simulation step         Convergence     Electron number  ETRS Iterations
 RTBSE|            4985     0.38491152E-007     0.10000000E+002                6
 RTBSE| Simulation step         Convergence     Electron number  ETRS Iterations
 RTBSE|            4986     0.37139234E-007     0.10000000E+002                6
 RTBSE| Simulation step         Convergence     Electron number  ETRS Iterations
 RTBSE|            4987     0.34728495E-007     0.10000000E+002                6
 RTBSE| Simulation step         Convergence     Electron number  ETRS Iterations
 RTBSE|            4988     0.31297090E-007     0.10000000E+002                6
 RTBSE| Simulation step         Convergence     Electron number  ETRS Iterations
 RTBSE|            4989     0.26936954E-007     0.10000000E+002                6
 RTBSE| Simulation step         Convergence     Electron number  ETRS Iterations
 RTBSE|            4990     0.21843456E-007     0.10000000E+002                6
 RTBSE| Simulation step         Convergence     Electron number  ETRS Iterations
 RTBSE|            4991     0.96682690E-007     0.10000000E+002                5
 RTBSE| Simulation step         Convergence     Electron number  ETRS Iterations
 RTBSE|            4992     0.75168819E-007     0.10000000E+002                5
 RTBSE| Simulation step         Convergence     Electron number  ETRS Iterations
 RTBSE|            4993     0.58575178E-007     0.10000000E+002                5
 RTBSE| Simulation step         Convergence     Electron number  ETRS Iterations
 RTBSE|            4994     0.94760555E-007     0.10000000E+002                5
 RTBSE| Simulation step         Convergence     Electron number  ETRS Iterations
 RTBSE|            4995     0.17007197E-007     0.10000000E+002                6
 RTBSE| Simulation step         Convergence     Electron number  ETRS Iterations
 RTBSE|            4996     0.19954666E-007     0.10000000E+002                6
 RTBSE| Simulation step         Convergence     Electron number  ETRS Iterations
 RTBSE|            4997     0.22251606E-007     0.10000000E+002                6
 RTBSE| Simulation step         Convergence     Electron number  ETRS Iterations
 RTBSE|            4998     0.23914617E-007     0.10000000E+002                6
 RTBSE| Simulation step         Convergence     Electron number  ETRS Iterations
 RTBSE|            4999     0.25099808E-007     0.10000000E+002                6
 RTBSE| Simulation step         Convergence     Electron number  ETRS Iterations
 RTBSE|            5000     0.25954273E-007     0.10000000E+002                6
 RTBSE| Simulation step         Convergence     Electron number  ETRS Iterations
 RTBSE|            5001     0.26655234E-007     0.10000000E+002                6
 RTBSE| Simulation step         Convergence     Electron number  ETRS Iterations
 RTBSE|            5002     0.27356054E-007     0.10000000E+002                6
 RTBSE| Simulation step         Convergence     Electron number  ETRS Iterations
 RTBSE|            5003     0.28126698E-007     0.10000000E+002                6
 RTBSE| Simulation step         Convergence     Electron number  ETRS Iterations
 RTBSE|            5004     0.29003670E-007     0.10000000E+002                6
 RTBSE| Simulation step         Convergence     Electron number  ETRS Iterations
 RTBSE|            5005     0.29941452E-007     0.10000000E+002                6
 RTBSE| Simulation step         Convergence     Electron number  ETRS Iterations
 RTBSE|            5006     0.30828582E-007     0.10000000E+002                6
 RTBSE| Simulation step         Convergence     Electron number  ETRS Iterations
 RTBSE|            5007     0.32221162E-007     0.10000000E+002                6
 RTBSE| Simulation step         Convergence     Electron number  ETRS Iterations
 RTBSE|            5008     0.34067031E-007     0.10000000E+002                6
 RTBSE| Simulation step         Convergence     Electron number  ETRS Iterations
 RTBSE|            5009     0.35478490E-007     0.10000000E+002                6
 RTBSE| Simulation step         Convergence     Electron number  ETRS Iterations
 RTBSE|            5010     0.36264668E-007     0.10000000E+002                6
 RTBSE| Simulation step         Convergence     Electron number  ETRS Iterations
 RTBSE|            5011     0.36182400E-007     0.10000000E+002                6
 RTBSE| Simulation step         Convergence     Electron number  ETRS Iterations
 RTBSE|            5012     0.35097845E-007     0.10000000E+002                6
 RTBSE| Simulation step         Convergence     Electron number  ETRS Iterations
 RTBSE|            5013     0.32880107E-007     0.10000000E+002                6
 RTBSE| Simulation step         Convergence     Electron number  ETRS Iterations
 RTBSE|            5014     0.29543050E-007     0.10000000E+002                6
 RTBSE| Simulation step         Convergence     Electron number  ETRS Iterations
 RTBSE|            5015     0.25152508E-007     0.10000000E+002                6
 RTBSE| Simulation step         Convergence     Electron number  ETRS Iterations
 RTBSE|            5016     0.19937459E-007     0.10000000E+002                6
 RTBSE| Simulation step         Convergence     Electron number  ETRS Iterations
 RTBSE|            5017     0.89565180E-007     0.10000000E+002                5
 RTBSE| Simulation step         Convergence     Electron number  ETRS Iterations
 RTBSE|            5018     0.69874013E-007     0.10000000E+002                5
 RTBSE| Simulation step         Convergence     Electron number  ETRS Iterations
 RTBSE|            5019     0.85227050E-007     0.10000000E+002                5
 RTBSE| Simulation step         Convergence     Electron number  ETRS Iterations
 RTBSE|            5020     0.17074557E-007     0.10000000E+002                6
 RTBSE| Simulation step         Convergence     Electron number  ETRS Iterations
 RTBSE|            5021     0.20808676E-007     0.10000000E+002                6
 RTBSE| Simulation step         Convergence     Electron number  ETRS Iterations
 RTBSE|            5022     0.23904054E-007     0.10000000E+002                6
 RTBSE| Simulation step         Convergence     Electron number  ETRS Iterations
 RTBSE|            5023     0.26261789E-007     0.10000000E+002                6
 RTBSE| Simulation step         Convergence     Electron number  ETRS Iterations
 RTBSE|            5024     0.28016733E-007     0.10000000E+002                6
 RTBSE| Simulation step         Convergence     Electron number  ETRS Iterations
 RTBSE|            5025     0.29298360E-007     0.10000000E+002                6
 RTBSE| Simulation step         Convergence     Electron number  ETRS Iterations
 RTBSE|            5026     0.30253736E-007     0.10000000E+002                6
 RTBSE| Simulation step         Convergence     Electron number  ETRS Iterations
 RTBSE|            5027     0.31053201E-007     0.10000000E+002                6
 RTBSE| Simulation step         Convergence     Electron number  ETRS Iterations
 RTBSE|            5028     0.31819675E-007     0.10000000E+002                6
 RTBSE| Simulation step         Convergence     Electron number  ETRS Iterations
 RTBSE|            5029     0.32642816E-007     0.10000000E+002                6
 RTBSE| Simulation step         Convergence     Electron number  ETRS Iterations
 RTBSE|            5030     0.33459687E-007     0.10000000E+002                6
 RTBSE| Simulation step         Convergence     Electron number  ETRS Iterations
 RTBSE|            5031     0.34284716E-007     0.10000000E+002                6
 RTBSE| Simulation step         Convergence     Electron number  ETRS Iterations
 RTBSE|            5032     0.36117222E-007     0.10000000E+002                6
 RTBSE| Simulation step         Convergence     Electron number  ETRS Iterations
 RTBSE|            5033     0.37738834E-007     0.10000000E+002                6
 RTBSE| Simulation step         Convergence     Electron number  ETRS Iterations
 RTBSE|            5034     0.38917116E-007     0.10000000E+002                6
 RTBSE| Simulation step         Convergence     Electron number  ETRS Iterations
 RTBSE|            5035     0.39412487E-007     0.10000000E+002                6
 RTBSE| Simulation step         Convergence     Electron number  ETRS Iterations
 RTBSE|            5036     0.39043561E-007     0.10000000E+002                6
 RTBSE| Simulation step         Convergence     Electron number  ETRS Iterations
 RTBSE|            5037     0.37657835E-007     0.10000000E+002                6
 RTBSE| Simulation step         Convergence     Electron number  ETRS Iterations
 RTBSE|            5038     0.35226730E-007     0.10000000E+002                6
 RTBSE| Simulation step         Convergence     Electron number  ETRS Iterations
 RTBSE|            5039     0.31773666E-007     0.10000000E+002                6
 RTBSE| Simulation step         Convergence     Electron number  ETRS Iterations
 RTBSE|            5040     0.27419004E-007     0.10000000E+002                6
 RTBSE| Simulation step         Convergence     Electron number  ETRS Iterations
 RTBSE|            5041     0.22331851E-007     0.10000000E+002                6
 RTBSE| Simulation step         Convergence     Electron number  ETRS Iterations
 RTBSE|            5042     0.98404945E-007     0.10000000E+002                5
 RTBSE| Simulation step         Convergence     Electron number  ETRS Iterations
 RTBSE|            5043     0.76568931E-007     0.10000000E+002                5
 RTBSE| Simulation step         Convergence     Electron number  ETRS Iterations
 RTBSE|            5044     0.59190525E-007     0.10000000E+002                5
 RTBSE| Simulation step         Convergence     Electron number  ETRS Iterations
 RTBSE|            5045     0.89902034E-007     0.10000000E+002                5
 RTBSE| Simulation step         Convergence     Electron number  ETRS Iterations
 RTBSE|            5046     0.16365129E-007     0.10000000E+002                6
 RTBSE| Simulation step         Convergence     Electron number  ETRS Iterations
 RTBSE|            5047     0.19292135E-007     0.10000000E+002                6
 RTBSE| Simulation step         Convergence     Electron number  ETRS Iterations
 RTBSE|            5048     0.21548408E-007     0.10000000E+002                6
 RTBSE| Simulation step         Convergence     Electron number  ETRS Iterations
 RTBSE|            5049     0.23230185E-007     0.10000000E+002                6
 RTBSE| Simulation step         Convergence     Electron number  ETRS Iterations
 RTBSE|            5050     0.24462106E-007     0.10000000E+002                6
 RTBSE| Simulation step         Convergence     Electron number  ETRS Iterations
 RTBSE|            5051     0.25386172E-007     0.10000000E+002                6
 RTBSE| Simulation step         Convergence     Electron number  ETRS Iterations
 RTBSE|            5052     0.26183344E-007     0.10000000E+002                6
 RTBSE| Simulation step         Convergence     Electron number  ETRS Iterations
 RTBSE|            5053     0.26986586E-007     0.10000000E+002                6
 RTBSE| Simulation step         Convergence     Electron number  ETRS Iterations
 RTBSE|            5054     0.27887951E-007     0.10000000E+002                6
 RTBSE| Simulation step         Convergence     Electron number  ETRS Iterations
 RTBSE|            5055     0.28881928E-007     0.10000000E+002                6
 RTBSE| Simulation step         Convergence     Electron number  ETRS Iterations
 RTBSE|            5056     0.29973499E-007     0.10000000E+002                6
 RTBSE| Simulation step         Convergence     Electron number  ETRS Iterations
 RTBSE|            5057     0.30994747E-007     0.10000000E+002                6
 RTBSE| Simulation step         Convergence     Electron number  ETRS Iterations
 RTBSE|            5058     0.32175605E-007     0.10000000E+002                6
 RTBSE| Simulation step         Convergence     Electron number  ETRS Iterations
 RTBSE|            5059     0.34124898E-007     0.10000000E+002                6
 RTBSE| Simulation step         Convergence     Electron number  ETRS Iterations
 RTBSE|            5060     0.35644036E-007     0.10000000E+002                6
 RTBSE| Simulation step         Convergence     Electron number  ETRS Iterations
 RTBSE|            5061     0.36535564E-007     0.10000000E+002                6
 RTBSE| Simulation step         Convergence     Electron number  ETRS Iterations
 RTBSE|            5062     0.36559866E-007     0.10000000E+002                6
 RTBSE| Simulation step         Convergence     Electron number  ETRS Iterations
 RTBSE|            5063     0.35552808E-007     0.10000000E+002                6
 RTBSE| Simulation step         Convergence     Electron number  ETRS Iterations
 RTBSE|            5064     0.33404024E-007     0.10000000E+002                6
 RTBSE| Simulation step         Convergence     Electron number  ETRS Iterations
 RTBSE|            5065     0.30138946E-007     0.10000000E+002                6
 RTBSE| Simulation step         Convergence     Electron number  ETRS Iterations
 RTBSE|            5066     0.25824100E-007     0.10000000E+002                6
 RTBSE| Simulation step         Convergence     Electron number  ETRS Iterations
 RTBSE|            5067     0.20673590E-007     0.10000000E+002                6
 RTBSE| Simulation step         Convergence     Electron number  ETRS Iterations
 RTBSE|            5068     0.92430764E-007     0.10000000E+002                5
 RTBSE| Simulation step         Convergence     Electron number  ETRS Iterations
 RTBSE|            5069     0.72134142E-007     0.10000000E+002                5
 RTBSE| Simulation step         Convergence     Electron number  ETRS Iterations
 RTBSE|            5070     0.79083213E-007     0.10000000E+002                5
 RTBSE| Simulation step         Convergence     Electron number  ETRS Iterations
 RTBSE|            5071     0.16385853E-007     0.10000000E+002                6
 RTBSE| Simulation step         Convergence     Electron number  ETRS Iterations
 RTBSE|            5072     0.20143907E-007     0.10000000E+002                6
 RTBSE| Simulation step         Convergence     Electron number  ETRS Iterations
 RTBSE|            5073     0.23262349E-007     0.10000000E+002                6
 RTBSE| Simulation step         Convergence     Electron number  ETRS Iterations
 RTBSE|            5074     0.25706512E-007     0.10000000E+002                6
 RTBSE| Simulation step         Convergence     Electron number  ETRS Iterations
 RTBSE|            5075     0.27574764E-007     0.10000000E+002                6
 RTBSE| Simulation step         Convergence     Electron number  ETRS Iterations
 RTBSE|            5076     0.28946868E-007     0.10000000E+002                6
 RTBSE| Simulation step         Convergence     Electron number  ETRS Iterations
 RTBSE|            5077     0.30033268E-007     0.10000000E+002                6
 RTBSE| Simulation step         Convergence     Electron number  ETRS Iterations
 RTBSE|            5078     0.30939727E-007     0.10000000E+002                6
 RTBSE| Simulation step         Convergence     Electron number  ETRS Iterations
 RTBSE|            5079     0.31862039E-007     0.10000000E+002                6
 RTBSE| Simulation step         Convergence     Electron number  ETRS Iterations
 RTBSE|            5080     0.32750988E-007     0.10000000E+002                6
 RTBSE| Simulation step         Convergence     Electron number  ETRS Iterations
 RTBSE|            5081     0.33654829E-007     0.10000000E+002                6
 RTBSE| Simulation step         Convergence     Electron number  ETRS Iterations
 RTBSE|            5082     0.34473284E-007     0.10000000E+002                6
 RTBSE| Simulation step         Convergence     Electron number  ETRS Iterations
 RTBSE|            5083     0.36279172E-007     0.10000000E+002                6
 RTBSE| Simulation step         Convergence     Electron number  ETRS Iterations
 RTBSE|            5084     0.37930997E-007     0.10000000E+002                6
 RTBSE| Simulation step         Convergence     Electron number  ETRS Iterations
 RTBSE|            5085     0.39102117E-007     0.10000000E+002                6
 RTBSE| Simulation step         Convergence     Electron number  ETRS Iterations
 RTBSE|            5086     0.39588471E-007     0.10000000E+002                6
 RTBSE| Simulation step         Convergence     Electron number  ETRS Iterations
 RTBSE|            5087     0.39189509E-007     0.10000000E+002                6
 RTBSE| Simulation step         Convergence     Electron number  ETRS Iterations
 RTBSE|            5088     0.37804565E-007     0.10000000E+002                6
 RTBSE| Simulation step         Convergence     Electron number  ETRS Iterations
 RTBSE|            5089     0.35357100E-007     0.10000000E+002                6
 RTBSE| Simulation step         Convergence     Electron number  ETRS Iterations
 RTBSE|            5090     0.31903586E-007     0.10000000E+002                6
 RTBSE| Simulation step         Convergence     Electron number  ETRS Iterations
 RTBSE|            5091     0.27549938E-007     0.10000000E+002                6
 RTBSE| Simulation step         Convergence     Electron number  ETRS Iterations
 RTBSE|            5092     0.22497611E-007     0.10000000E+002                6
 RTBSE| Simulation step         Convergence     Electron number  ETRS Iterations
 RTBSE|            5093     0.98848123E-007     0.10000000E+002                5
 RTBSE| Simulation step         Convergence     Electron number  ETRS Iterations
 RTBSE|            5094     0.77172989E-007     0.10000000E+002                5
 RTBSE| Simulation step         Convergence     Electron number  ETRS Iterations
 RTBSE|            5095     0.59513376E-007     0.10000000E+002                5
 RTBSE| Simulation step         Convergence     Electron number  ETRS Iterations
 RTBSE|            5096     0.84011076E-007     0.10000000E+002                5
 RTBSE| Simulation step         Convergence     Electron number  ETRS Iterations
 RTBSE|            5097     0.15528888E-007     0.10000000E+002                6
 RTBSE| Simulation step         Convergence     Electron number  ETRS Iterations
 RTBSE|            5098     0.18374985E-007     0.10000000E+002                6
 RTBSE| Simulation step         Convergence     Electron number  ETRS Iterations
 RTBSE|            5099     0.20629242E-007     0.10000000E+002                6
 RTBSE| Simulation step         Convergence     Electron number  ETRS Iterations
 RTBSE|            5100     0.22298564E-007     0.10000000E+002                6
 RTBSE| Simulation step         Convergence     Electron number  ETRS Iterations
 RTBSE|            5101     0.23598518E-007     0.10000000E+002                6
 RTBSE| Simulation step         Convergence     Electron number  ETRS Iterations
 RTBSE|            5102     0.24649885E-007     0.10000000E+002                6
 RTBSE| Simulation step         Convergence     Electron number  ETRS Iterations
 RTBSE|            5103     0.25589677E-007     0.10000000E+002                6
 RTBSE| Simulation step         Convergence     Electron number  ETRS Iterations
 RTBSE|            5104     0.26556247E-007     0.10000000E+002                6
 RTBSE| Simulation step         Convergence     Electron number  ETRS Iterations
 RTBSE|            5105     0.27609927E-007     0.10000000E+002                6
 RTBSE| Simulation step         Convergence     Electron number  ETRS Iterations
 RTBSE|            5106     0.28819217E-007     0.10000000E+002                6
 RTBSE| Simulation step         Convergence     Electron number  ETRS Iterations
 RTBSE|            5107     0.30038009E-007     0.10000000E+002                6
 RTBSE| Simulation step         Convergence     Electron number  ETRS Iterations
 RTBSE|            5108     0.31207983E-007     0.10000000E+002                6
 RTBSE| Simulation step         Convergence     Electron number  ETRS Iterations
 RTBSE|            5109     0.32185136E-007     0.10000000E+002                6
 RTBSE| Simulation step         Convergence     Electron number  ETRS Iterations
 RTBSE|            5110     0.34257934E-007     0.10000000E+002                6
 RTBSE| Simulation step         Convergence     Electron number  ETRS Iterations
 RTBSE|            5111     0.35903617E-007     0.10000000E+002                6
 RTBSE| Simulation step         Convergence     Electron number  ETRS Iterations
 RTBSE|            5112     0.36863960E-007     0.10000000E+002                6
 RTBSE| Simulation step         Convergence     Electron number  ETRS Iterations
 RTBSE|            5113     0.36933365E-007     0.10000000E+002                6
 RTBSE| Simulation step         Convergence     Electron number  ETRS Iterations
 RTBSE|            5114     0.35971189E-007     0.10000000E+002                6
 RTBSE| Simulation step         Convergence     Electron number  ETRS Iterations
 RTBSE|            5115     0.33873249E-007     0.10000000E+002                6
 RTBSE| Simulation step         Convergence     Electron number  ETRS Iterations
 RTBSE|            5116     0.30633418E-007     0.10000000E+002                6
 RTBSE| Simulation step         Convergence     Electron number  ETRS Iterations
 RTBSE|            5117     0.26347534E-007     0.10000000E+002                6
 RTBSE| Simulation step         Convergence     Electron number  ETRS Iterations
 RTBSE|            5118     0.21198926E-007     0.10000000E+002                6
 RTBSE| Simulation step         Convergence     Electron number  ETRS Iterations
 RTBSE|            5119     0.94321029E-007     0.10000000E+002                5
 RTBSE| Simulation step         Convergence     Electron number  ETRS Iterations
 RTBSE|            5120     0.73542507E-007     0.10000000E+002                5
 RTBSE| Simulation step         Convergence     Electron number  ETRS Iterations
 RTBSE|            5121     0.74020999E-007     0.10000000E+002                5
 RTBSE| Simulation step         Convergence     Electron number  ETRS Iterations
 RTBSE|            5122     0.15777059E-007     0.10000000E+002                6
 RTBSE| Simulation step         Convergence     Electron number  ETRS Iterations
 RTBSE|            5123     0.19508090E-007     0.10000000E+002                6
 RTBSE| Simulation step         Convergence     Electron number  ETRS Iterations
 RTBSE|            5124     0.22617720E-007     0.10000000E+002                6
 RTBSE| Simulation step         Convergence     Electron number  ETRS Iterations
 RTBSE|            5125     0.25070186E-007     0.10000000E+002                6
 RTBSE| Simulation step         Convergence     Electron number  ETRS Iterations
 RTBSE|            5126     0.26931661E-007     0.10000000E+002                6
 RTBSE| Simulation step         Convergence     Electron number  ETRS Iterations
 RTBSE|            5127     0.28345591E-007     0.10000000E+002                6
 RTBSE| Simulation step         Convergence     Electron number  ETRS Iterations
 RTBSE|            5128     0.29497970E-007     0.10000000E+002                6
 RTBSE| Simulation step         Convergence     Electron number  ETRS Iterations
 RTBSE|            5129     0.30519428E-007     0.10000000E+002                6
 RTBSE| Simulation step         Convergence     Electron number  ETRS Iterations
 RTBSE|            5130     0.31470091E-007     0.10000000E+002                6
 RTBSE| Simulation step         Convergence     Electron number  ETRS Iterations
 RTBSE|            5131     0.32448097E-007     0.10000000E+002                6
 RTBSE| Simulation step         Convergence     Electron number  ETRS Iterations
 RTBSE|            5132     0.33435670E-007     0.10000000E+002                6
 RTBSE| Simulation step         Convergence     Electron number  ETRS Iterations
 RTBSE|            5133     0.34338676E-007     0.10000000E+002                6
 RTBSE| Simulation step         Convergence     Electron number  ETRS Iterations
 RTBSE|            5134     0.35994078E-007     0.10000000E+002                6
 RTBSE| Simulation step         Convergence     Electron number  ETRS Iterations
 RTBSE|            5135     0.37715752E-007     0.10000000E+002                6
 RTBSE| Simulation step         Convergence     Electron number  ETRS Iterations
 RTBSE|            5136     0.38970749E-007     0.10000000E+002                6
 RTBSE| Simulation step         Convergence     Electron number  ETRS Iterations
 RTBSE|            5137     0.39542094E-007     0.10000000E+002                6
 RTBSE| Simulation step         Convergence     Electron number  ETRS Iterations
 RTBSE|            5138     0.39229833E-007     0.10000000E+002                6
 RTBSE| Simulation step         Convergence     Electron number  ETRS Iterations
 RTBSE|            5139     0.37922579E-007     0.10000000E+002                6
 RTBSE| Simulation step         Convergence     Electron number  ETRS Iterations
 RTBSE|            5140     0.35556584E-007     0.10000000E+002                6
 RTBSE| Simulation step         Convergence     Electron number  ETRS Iterations
 RTBSE|            5141     0.32191076E-007     0.10000000E+002                6
 RTBSE| Simulation step         Convergence     Electron number  ETRS Iterations
 RTBSE|            5142     0.27962229E-007     0.10000000E+002                6
 RTBSE| Simulation step         Convergence     Electron number  ETRS Iterations
 RTBSE|            5143     0.23044222E-007     0.10000000E+002                6
 RTBSE| Simulation step         Convergence     Electron number  ETRS Iterations
 RTBSE|            5144     0.17695540E-007     0.10000000E+002                6
 RTBSE| Simulation step         Convergence     Electron number  ETRS Iterations
 RTBSE|            5145     0.79501790E-007     0.10000000E+002                5
 RTBSE| Simulation step         Convergence     Electron number  ETRS Iterations
 RTBSE|            5146     0.61255781E-007     0.10000000E+002                5
 RTBSE| Simulation step         Convergence     Electron number  ETRS Iterations
 RTBSE|            5147     0.75508798E-007     0.10000000E+002                5
 RTBSE| Simulation step         Convergence     Electron number  ETRS Iterations
 RTBSE|            5148     0.14457629E-007     0.10000000E+002                6
 RTBSE| Simulation step         Convergence     Electron number  ETRS Iterations
 RTBSE|            5149     0.17287346E-007     0.10000000E+002                6
 RTBSE| Simulation step         Convergence     Electron number  ETRS Iterations
 RTBSE|            5150     0.19582938E-007     0.10000000E+002                6
 RTBSE| Simulation step         Convergence     Electron number  ETRS Iterations
 RTBSE|            5151     0.21405714E-007     0.10000000E+002                6
 RTBSE| Simulation step         Convergence     Electron number  ETRS Iterations
 RTBSE|            5152     0.22812883E-007     0.10000000E+002                6
 RTBSE| Simulation step         Convergence     Electron number  ETRS Iterations
 RTBSE|            5153     0.24014751E-007     0.10000000E+002                6
 RTBSE| Simulation step         Convergence     Electron number  ETRS Iterations
 RTBSE|            5154     0.25129066E-007     0.10000000E+002                6
 RTBSE| Simulation step         Convergence     Electron number  ETRS Iterations
 RTBSE|            5155     0.26302801E-007     0.10000000E+002                6
 RTBSE| Simulation step         Convergence     Electron number  ETRS Iterations
 RTBSE|            5156     0.27564308E-007     0.10000000E+002                6
 RTBSE| Simulation step         Convergence     Electron number  ETRS Iterations
 RTBSE|            5157     0.28926571E-007     0.10000000E+002                6
 RTBSE| Simulation step         Convergence     Electron number  ETRS Iterations
 RTBSE|            5158     0.30331860E-007     0.10000000E+002                6
 RTBSE| Simulation step         Convergence     Electron number  ETRS Iterations
 RTBSE|            5159     0.31644854E-007     0.10000000E+002                6
 RTBSE| Simulation step         Convergence     Electron number  ETRS Iterations
 RTBSE|            5160     0.32667627E-007     0.10000000E+002                6
 RTBSE| Simulation step         Convergence     Electron number  ETRS Iterations
 RTBSE|            5161     0.34608944E-007     0.10000000E+002                6
 RTBSE| Simulation step         Convergence     Electron number  ETRS Iterations
 RTBSE|            5162     0.36341184E-007     0.10000000E+002                6
 RTBSE| Simulation step         Convergence     Electron number  ETRS Iterations
 RTBSE|            5163     0.37374224E-007     0.10000000E+002                6
 RTBSE| Simulation step         Convergence     Electron number  ETRS Iterations
 RTBSE|            5164     0.37486058E-007     0.10000000E+002                6
 RTBSE| Simulation step         Convergence     Electron number  ETRS Iterations
 RTBSE|            5165     0.36531355E-007     0.10000000E+002                6
 RTBSE| Simulation step         Convergence     Electron number  ETRS Iterations
 RTBSE|            5166     0.34420325E-007     0.10000000E+002                6
 RTBSE| Simulation step         Convergence     Electron number  ETRS Iterations
 RTBSE|            5167     0.31167592E-007     0.10000000E+002                6
 RTBSE| Simulation step         Convergence     Electron number  ETRS Iterations
 RTBSE|            5168     0.26872967E-007     0.10000000E+002                6
 RTBSE| Simulation step         Convergence     Electron number  ETRS Iterations
 RTBSE|            5169     0.21737566E-007     0.10000000E+002                6
 RTBSE| Simulation step         Convergence     Electron number  ETRS Iterations
 RTBSE|            5170     0.96273692E-007     0.10000000E+002                5
 RTBSE| Simulation step         Convergence     Electron number  ETRS Iterations
 RTBSE|            5171     0.75381966E-007     0.10000000E+002                5
 RTBSE| Simulation step         Convergence     Electron number  ETRS Iterations
 RTBSE|            5172     0.69305714E-007     0.10000000E+002                5
 RTBSE| Simulation step         Convergence     Electron number  ETRS Iterations
 RTBSE|            5173     0.15204953E-007     0.10000000E+002                6
 RTBSE| Simulation step         Convergence     Electron number  ETRS Iterations
 RTBSE|            5174     0.18875157E-007     0.10000000E+002                6
 RTBSE| Simulation step         Convergence     Electron number  ETRS Iterations
 RTBSE|            5175     0.21979652E-007     0.10000000E+002                6
 RTBSE| Simulation step         Convergence     Electron number  ETRS Iterations
 RTBSE|            5176     0.24446576E-007     0.10000000E+002                6
 RTBSE| Simulation step         Convergence     Electron number  ETRS Iterations
 RTBSE|            5177     0.26364818E-007     0.10000000E+002                6
 RTBSE| Simulation step         Convergence     Electron number  ETRS Iterations
 RTBSE|            5178     0.27854871E-007     0.10000000E+002                6
 RTBSE| Simulation step         Convergence     Electron number  ETRS Iterations
 RTBSE|            5179     0.29060215E-007     0.10000000E+002                6
 RTBSE| Simulation step         Convergence     Electron number  ETRS Iterations
 RTBSE|            5180     0.30142106E-007     0.10000000E+002                6
 RTBSE| Simulation step         Convergence     Electron number  ETRS Iterations
 RTBSE|            5181     0.31191495E-007     0.10000000E+002                6
 RTBSE| Simulation step         Convergence     Electron number  ETRS Iterations
 RTBSE|            5182     0.32276361E-007     0.10000000E+002                6
 RTBSE| Simulation step         Convergence     Electron number  ETRS Iterations
 RTBSE|            5183     0.33358295E-007     0.10000000E+002                6
 RTBSE| Simulation step         Convergence     Electron number  ETRS Iterations
 RTBSE|            5184     0.34359382E-007     0.10000000E+002                6
 RTBSE| Simulation step         Convergence     Electron number  ETRS Iterations
 RTBSE|            5185     0.35821937E-007     0.10000000E+002                6
 RTBSE| Simulation step         Convergence     Electron number  ETRS Iterations
 RTBSE|            5186     0.37614297E-007     0.10000000E+002                6
 RTBSE| Simulation step         Convergence     Electron number  ETRS Iterations
 RTBSE|            5187     0.38928087E-007     0.10000000E+002                6
 RTBSE| Simulation step         Convergence     Electron number  ETRS Iterations
 RTBSE|            5188     0.39564211E-007     0.10000000E+002                6
 RTBSE| Simulation step         Convergence     Electron number  ETRS Iterations
 RTBSE|            5189     0.39311448E-007     0.10000000E+002                6
 RTBSE| Simulation step         Convergence     Electron number  ETRS Iterations
 RTBSE|            5190     0.38076051E-007     0.10000000E+002                6
 RTBSE| Simulation step         Convergence     Electron number  ETRS Iterations
 RTBSE|            5191     0.35827571E-007     0.10000000E+002                6
 RTBSE| Simulation step         Convergence     Electron number  ETRS Iterations
 RTBSE|            5192     0.32568973E-007     0.10000000E+002                6
 RTBSE| Simulation step         Convergence     Electron number  ETRS Iterations
 RTBSE|            5193     0.28461597E-007     0.10000000E+002                6
 RTBSE| Simulation step         Convergence     Electron number  ETRS Iterations
 RTBSE|            5194     0.23668520E-007     0.10000000E+002                6
 RTBSE| Simulation step         Convergence     Electron number  ETRS Iterations
 RTBSE|            5195     0.18451356E-007     0.10000000E+002                6
 RTBSE| Simulation step         Convergence     Electron number  ETRS Iterations
 RTBSE|            5196     0.82447085E-007     0.10000000E+002                5
 RTBSE| Simulation step         Convergence     Electron number  ETRS Iterations
 RTBSE|            5197     0.63795063E-007     0.10000000E+002                5
 RTBSE| Simulation step         Convergence     Electron number  ETRS Iterations
 RTBSE|            5198     0.67554203E-007     0.10000000E+002                5
 RTBSE| Simulation step         Convergence     Electron number  ETRS Iterations
 RTBSE|            5199     0.97320564E-007     0.10000000E+002                5
 RTBSE| Simulation step         Convergence     Electron number  ETRS Iterations
 RTBSE|            5200     0.16394613E-007     0.10000000E+002                6
 RTBSE| Simulation step         Convergence     Electron number  ETRS Iterations
 RTBSE|            5201     0.18768458E-007     0.10000000E+002                6
 RTBSE| Simulation step         Convergence     Electron number  ETRS Iterations
 RTBSE|            5202     0.20699696E-007     0.10000000E+002                6
 RTBSE| Simulation step         Convergence     Electron number  ETRS Iterations
 RTBSE|            5203     0.22274767E-007     0.10000000E+002                6
 RTBSE| Simulation step         Convergence     Electron number  ETRS Iterations
 RTBSE|            5204     0.23631895E-007     0.10000000E+002                6
 RTBSE| Simulation step         Convergence     Electron number  ETRS Iterations
 RTBSE|            5205     0.24937502E-007     0.10000000E+002                6
 RTBSE| Simulation step         Convergence     Electron number  ETRS Iterations
 RTBSE|            5206     0.26266922E-007     0.10000000E+002                6
 RTBSE| Simulation step         Convergence     Electron number  ETRS Iterations
 RTBSE|            5207     0.27695010E-007     0.10000000E+002                6
 RTBSE| Simulation step         Convergence     Electron number  ETRS Iterations
 RTBSE|            5208     0.29211932E-007     0.10000000E+002                6
 RTBSE| Simulation step         Convergence     Electron number  ETRS Iterations
 RTBSE|            5209     0.30724485E-007     0.10000000E+002                6
 RTBSE| Simulation step         Convergence     Electron number  ETRS Iterations
 RTBSE|            5210     0.32090959E-007     0.10000000E+002                6
 RTBSE| Simulation step         Convergence     Electron number  ETRS Iterations
 RTBSE|            5211     0.33155874E-007     0.10000000E+002                6
 RTBSE| Simulation step         Convergence     Electron number  ETRS Iterations
 RTBSE|            5212     0.34979551E-007     0.10000000E+002                6
 RTBSE| Simulation step         Convergence     Electron number  ETRS Iterations
 RTBSE|            5213     0.36706326E-007     0.10000000E+002                6
 RTBSE| Simulation step         Convergence     Electron number  ETRS Iterations
 RTBSE|            5214     0.37706610E-007     0.10000000E+002                6
 RTBSE| Simulation step         Convergence     Electron number  ETRS Iterations
 RTBSE|            5215     0.37776576E-007     0.10000000E+002                6
 RTBSE| Simulation step         Convergence     Electron number  ETRS Iterations
 RTBSE|            5216     0.36768314E-007     0.10000000E+002                6
 RTBSE| Simulation step         Convergence     Electron number  ETRS Iterations
 RTBSE|            5217     0.34613085E-007     0.10000000E+002                6
 RTBSE| Simulation step         Convergence     Electron number  ETRS Iterations
 RTBSE|            5218     0.31329788E-007     0.10000000E+002                6
 RTBSE| Simulation step         Convergence     Electron number  ETRS Iterations
 RTBSE|            5219     0.27023849E-007     0.10000000E+002                6
 RTBSE| Simulation step         Convergence     Electron number  ETRS Iterations
 RTBSE|            5220     0.21909818E-007     0.10000000E+002                6
 RTBSE| Simulation step         Convergence     Electron number  ETRS Iterations
 RTBSE|            5221     0.96775358E-007     0.10000000E+002                5
 RTBSE| Simulation step         Convergence     Electron number  ETRS Iterations
 RTBSE|            5222     0.76062352E-007     0.10000000E+002                5
 RTBSE| Simulation step         Convergence     Electron number  ETRS Iterations
 RTBSE|            5223     0.65572250E-007     0.10000000E+002                5
 RTBSE| Simulation step         Convergence     Electron number  ETRS Iterations
 RTBSE|            5224     0.14634368E-007     0.10000000E+002                6
 RTBSE| Simulation step         Convergence     Electron number  ETRS Iterations
 RTBSE|            5225     0.18240800E-007     0.10000000E+002                6
 RTBSE| Simulation step         Convergence     Electron number  ETRS Iterations
 RTBSE|            5226     0.21276051E-007     0.10000000E+002                6
 RTBSE| Simulation step         Convergence     Electron number  ETRS Iterations
 RTBSE|            5227     0.23701698E-007     0.10000000E+002                6
 RTBSE| Simulation step         Convergence     Electron number  ETRS Iterations
 RTBSE|            5228     0.25599889E-007     0.10000000E+002                6
 RTBSE| Simulation step         Convergence     Electron number  ETRS Iterations
 RTBSE|            5229     0.27087810E-007     0.10000000E+002                6
 RTBSE| Simulation step         Convergence     Electron number  ETRS Iterations
 RTBSE|            5230     0.28349717E-007     0.10000000E+002                6
 RTBSE| Simulation step         Convergence     Electron number  ETRS Iterations
 RTBSE|            5231     0.29513964E-007     0.10000000E+002                6
 RTBSE| Simulation step         Convergence     Electron number  ETRS Iterations
 RTBSE|            5232     0.30681063E-007     0.10000000E+002                6
 RTBSE| Simulation step         Convergence     Electron number  ETRS Iterations
 RTBSE|            5233     0.31853096E-007     0.10000000E+002                6
 RTBSE| Simulation step         Convergence     Electron number  ETRS Iterations
 RTBSE|            5234     0.33052981E-007     0.10000000E+002                6
 RTBSE| Simulation step         Convergence     Electron number  ETRS Iterations
 RTBSE|            5235     0.34128517E-007     0.10000000E+002                6
 RTBSE| Simulation step         Convergence     Electron number  ETRS Iterations
 RTBSE|            5236     0.35396318E-007     0.10000000E+002                6
 RTBSE| Simulation step         Convergence     Electron number  ETRS Iterations
 RTBSE|            5237     0.37324453E-007     0.10000000E+002                6
 RTBSE| Simulation step         Convergence     Electron number  ETRS Iterations
 RTBSE|            5238     0.38766975E-007     0.10000000E+002                6
 RTBSE| Simulation step         Convergence     Electron number  ETRS Iterations
 RTBSE|            5239     0.39499778E-007     0.10000000E+002                6
 RTBSE| Simulation step         Convergence     Electron number  ETRS Iterations
 RTBSE|            5240     0.39388183E-007     0.10000000E+002                6
 RTBSE| Simulation step         Convergence     Electron number  ETRS Iterations
 RTBSE|            5241     0.38284239E-007     0.10000000E+002                6
 RTBSE| Simulation step         Convergence     Electron number  ETRS Iterations
 RTBSE|            5242     0.36135929E-007     0.10000000E+002                6
 RTBSE| Simulation step         Convergence     Electron number  ETRS Iterations
 RTBSE|            5243     0.33007600E-007     0.10000000E+002                6
 RTBSE| Simulation step         Convergence     Electron number  ETRS Iterations
 RTBSE|            5244     0.29013582E-007     0.10000000E+002                6
 RTBSE| Simulation step         Convergence     Electron number  ETRS Iterations
 RTBSE|            5245     0.24335442E-007     0.10000000E+002                6
 RTBSE| Simulation step         Convergence     Electron number  ETRS Iterations
 RTBSE|            5246     0.19223609E-007     0.10000000E+002                6
 RTBSE| Simulation step         Convergence     Electron number  ETRS Iterations
 RTBSE|            5247     0.85427892E-007     0.10000000E+002                5
 RTBSE| Simulation step         Convergence     Electron number  ETRS Iterations
 RTBSE|            5248     0.66356508E-007     0.10000000E+002                5
 RTBSE| Simulation step         Convergence     Electron number  ETRS Iterations
 RTBSE|            5249     0.59952289E-007     0.10000000E+002                5
 RTBSE| Simulation step         Convergence     Electron number  ETRS Iterations
 RTBSE|            5250     0.89740878E-007     0.10000000E+002                5
 RTBSE| Simulation step         Convergence     Electron number  ETRS Iterations
 RTBSE|            5251     0.15518879E-007     0.10000000E+002                6
 RTBSE| Simulation step         Convergence     Electron number  ETRS Iterations
 RTBSE|            5252     0.17943863E-007     0.10000000E+002                6
 RTBSE| Simulation step         Convergence     Electron number  ETRS Iterations
 RTBSE|            5253     0.19974620E-007     0.10000000E+002                6
 RTBSE| Simulation step         Convergence     Electron number  ETRS Iterations
 RTBSE|            5254     0.21681427E-007     0.10000000E+002                6
 RTBSE| Simulation step         Convergence     Electron number  ETRS Iterations
 RTBSE|            5255     0.23189506E-007     0.10000000E+002                6
 RTBSE| Simulation step         Convergence     Electron number  ETRS Iterations
 RTBSE|            5256     0.24655220E-007     0.10000000E+002                6
 RTBSE| Simulation step         Convergence     Electron number  ETRS Iterations
 RTBSE|            5257     0.26147305E-007     0.10000000E+002                6
 RTBSE| Simulation step         Convergence     Electron number  ETRS Iterations
 RTBSE|            5258     0.27697721E-007     0.10000000E+002                6
 RTBSE| Simulation step         Convergence     Electron number  ETRS Iterations
 RTBSE|            5259     0.29307855E-007     0.10000000E+002                6
 RTBSE| Simulation step         Convergence     Electron number  ETRS Iterations
 RTBSE|            5260     0.30900617E-007     0.10000000E+002                6
 RTBSE| Simulation step         Convergence     Electron number  ETRS Iterations
 RTBSE|            5261     0.32323352E-007     0.10000000E+002                6
 RTBSE| Simulation step         Convergence     Electron number  ETRS Iterations
 RTBSE|            5262     0.33391236E-007     0.10000000E+002                6
 RTBSE| Simulation step         Convergence     Electron number  ETRS Iterations
 RTBSE|            5263     0.35028838E-007     0.10000000E+002                6
 RTBSE| Simulation step         Convergence     Electron number  ETRS Iterations
 RTBSE|            5264     0.36764989E-007     0.10000000E+002                6
 RTBSE| Simulation step         Convergence     Electron number  ETRS Iterations
 RTBSE|            5265     0.37748379E-007     0.10000000E+002                6
 RTBSE| Simulation step         Convergence     Electron number  ETRS Iterations
 RTBSE|            5266     0.37810445E-007     0.10000000E+002                6
 RTBSE| Simulation step         Convergence     Electron number  ETRS Iterations
 RTBSE|            5267     0.36792089E-007     0.10000000E+002                6
 RTBSE| Simulation step         Convergence     Electron number  ETRS Iterations
 RTBSE|            5268     0.34653932E-007     0.10000000E+002                6
 RTBSE| Simulation step         Convergence     Electron number  ETRS Iterations
 RTBSE|            5269     0.31413122E-007     0.10000000E+002                6
 RTBSE| Simulation step         Convergence     Electron number  ETRS Iterations
 RTBSE|            5270     0.27191760E-007     0.10000000E+002                6
 RTBSE| Simulation step         Convergence     Electron number  ETRS Iterations
 RTBSE|            5271     0.22197572E-007     0.10000000E+002                6
 RTBSE| Simulation step         Convergence     Electron number  ETRS Iterations
 RTBSE|            5272     0.97720008E-007     0.10000000E+002                5
 RTBSE| Simulation step         Convergence     Electron number  ETRS Iterations
 RTBSE|            5273     0.77574754E-007     0.10000000E+002                5
 RTBSE| Simulation step         Convergence     Electron number  ETRS Iterations
 RTBSE|            5274     0.60790775E-007     0.10000000E+002                5
 RTBSE| Simulation step         Convergence     Electron number  ETRS Iterations
 RTBSE|            5275     0.94913914E-007     0.10000000E+002                5
 RTBSE| Simulation step         Convergence     Electron number  ETRS Iterations
 RTBSE|            5276     0.17245381E-007     0.10000000E+002                6
 RTBSE| Simulation step         Convergence     Electron number  ETRS Iterations
 RTBSE|            5277     0.20248508E-007     0.10000000E+002                6
 RTBSE| Simulation step         Convergence     Electron number  ETRS Iterations
 RTBSE|            5278     0.22664690E-007     0.10000000E+002                6
 RTBSE| Simulation step         Convergence     Electron number  ETRS Iterations
 RTBSE|            5279     0.24626361E-007     0.10000000E+002                6
 RTBSE| Simulation step         Convergence     Electron number  ETRS Iterations
 RTBSE|            5280     0.26219118E-007     0.10000000E+002                6
 RTBSE| Simulation step         Convergence     Electron number  ETRS Iterations
 RTBSE|            5281     0.27579195E-007     0.10000000E+002                6
 RTBSE| Simulation step         Convergence     Electron number  ETRS Iterations
 RTBSE|            5282     0.28881060E-007     0.10000000E+002                6
 RTBSE| Simulation step         Convergence     Electron number  ETRS Iterations
 RTBSE|            5283     0.30184008E-007     0.10000000E+002                6
 RTBSE| Simulation step         Convergence     Electron number  ETRS Iterations
 RTBSE|            5284     0.31542941E-007     0.10000000E+002                6
 RTBSE| Simulation step         Convergence     Electron number  ETRS Iterations
 RTBSE|            5285     0.32909304E-007     0.10000000E+002                6
 RTBSE| Simulation step         Convergence     Electron number  ETRS Iterations
 RTBSE|            5286     0.34167350E-007     0.10000000E+002                6
 RTBSE| Simulation step         Convergence     Electron number  ETRS Iterations
 RTBSE|            5287     0.35195942E-007     0.10000000E+002                6
 RTBSE| Simulation step         Convergence     Electron number  ETRS Iterations
 RTBSE|            5288     0.37284304E-007     0.10000000E+002                6
 RTBSE| Simulation step         Convergence     Electron number  ETRS Iterations
 RTBSE|            5289     0.38869599E-007     0.10000000E+002                6
 RTBSE| Simulation step         Convergence     Electron number  ETRS Iterations
 RTBSE|            5290     0.39751606E-007     0.10000000E+002                6
 RTBSE| Simulation step         Convergence     Electron number  ETRS Iterations
 RTBSE|            5291     0.39755075E-007     0.10000000E+002                6
 RTBSE| Simulation step         Convergence     Electron number  ETRS Iterations
 RTBSE|            5292     0.38762309E-007     0.10000000E+002                6
 RTBSE| Simulation step         Convergence     Electron number  ETRS Iterations
 RTBSE|            5293     0.36732809E-007     0.10000000E+002                6
 RTBSE| Simulation step         Convergence     Electron number  ETRS Iterations
 RTBSE|            5294     0.33689261E-007     0.10000000E+002                6
 RTBSE| Simulation step         Convergence     Electron number  ETRS Iterations
 RTBSE|            5295     0.29764148E-007     0.10000000E+002                6
 RTBSE| Simulation step         Convergence     Electron number  ETRS Iterations
 RTBSE|            5296     0.25166588E-007     0.10000000E+002                6
 RTBSE| Simulation step         Convergence     Electron number  ETRS Iterations
 RTBSE|            5297     0.20115733E-007     0.10000000E+002                6
 RTBSE| Simulation step         Convergence     Electron number  ETRS Iterations
 RTBSE|            5298     0.89147391E-007     0.10000000E+002                5
 RTBSE| Simulation step         Convergence     Electron number  ETRS Iterations
 RTBSE|            5299     0.69661191E-007     0.10000000E+002                5
 RTBSE| Simulation step         Convergence     Electron number  ETRS Iterations
 RTBSE|            5300     0.54858919E-007     0.10000000E+002                5
 RTBSE| Simulation step         Convergence     Electron number  ETRS Iterations
 RTBSE|            5301     0.82846745E-007     0.10000000E+002                5
 RTBSE| Simulation step         Convergence     Electron number  ETRS Iterations
 RTBSE|            5302     0.14772844E-007     0.10000000E+002                6
 RTBSE| Simulation step         Convergence     Electron number  ETRS Iterations
 RTBSE|            5303     0.17303777E-007     0.10000000E+002                6
 RTBSE| Simulation step         Convergence     Electron number  ETRS Iterations
 RTBSE|            5304     0.19446133E-007     0.10000000E+002                6
 RTBSE| Simulation step         Convergence     Electron number  ETRS Iterations
 RTBSE|            5305     0.21279126E-007     0.10000000E+002                6
 RTBSE| Simulation step         Convergence     Electron number  ETRS Iterations
 RTBSE|            5306     0.22969962E-007     0.10000000E+002                6
 RTBSE| Simulation step         Convergence     Electron number  ETRS Iterations
 RTBSE|            5307     0.24554159E-007     0.10000000E+002                6
 RTBSE| Simulation step         Convergence     Electron number  ETRS Iterations
 RTBSE|            5308     0.26163806E-007     0.10000000E+002                6
 RTBSE| Simulation step         Convergence     Electron number  ETRS Iterations
 RTBSE|            5309     0.27827155E-007     0.10000000E+002                6
 RTBSE| Simulation step         Convergence     Electron number  ETRS Iterations
 RTBSE|            5310     0.29491886E-007     0.10000000E+002                6
 RTBSE| Simulation step         Convergence     Electron number  ETRS Iterations
 RTBSE|            5311     0.31137595E-007     0.10000000E+002                6
 RTBSE| Simulation step         Convergence     Electron number  ETRS Iterations
 RTBSE|            5312     0.32580173E-007     0.10000000E+002                6
 RTBSE| Simulation step         Convergence     Electron number  ETRS Iterations
 RTBSE|            5313     0.33652150E-007     0.10000000E+002                6
 RTBSE| Simulation step         Convergence     Electron number  ETRS Iterations
 RTBSE|            5314     0.35150316E-007     0.10000000E+002                6
 RTBSE| Simulation step         Convergence     Electron number  ETRS Iterations
 RTBSE|            5315     0.36845331E-007     0.10000000E+002                6
 RTBSE| Simulation step         Convergence     Electron number  ETRS Iterations
 RTBSE|            5316     0.37800366E-007     0.10000000E+002                6
 RTBSE| Simulation step         Convergence     Electron number  ETRS Iterations
 RTBSE|            5317     0.37832977E-007     0.10000000E+002                6
 RTBSE| Simulation step         Convergence     Electron number  ETRS Iterations
 RTBSE|            5318     0.36806242E-007     0.10000000E+002                6
 RTBSE| Simulation step         Convergence     Electron number  ETRS Iterations
 RTBSE|            5319     0.34670749E-007     0.10000000E+002                6
 RTBSE| Simulation step         Convergence     Electron number  ETRS Iterations
 RTBSE|            5320     0.31463215E-007     0.10000000E+002                6
 RTBSE| Simulation step         Convergence     Electron number  ETRS Iterations
 RTBSE|            5321     0.27311883E-007     0.10000000E+002                6
 RTBSE| Simulation step         Convergence     Electron number  ETRS Iterations
 RTBSE|            5322     0.22414315E-007     0.10000000E+002                6
 RTBSE| Simulation step         Convergence     Electron number  ETRS Iterations
 RTBSE|            5323     0.98515596E-007     0.10000000E+002                5
 RTBSE| Simulation step         Convergence     Electron number  ETRS Iterations
 RTBSE|            5324     0.78884004E-007     0.10000000E+002                5
 RTBSE| Simulation step         Convergence     Electron number  ETRS Iterations
 RTBSE|            5325     0.61414015E-007     0.10000000E+002                5
 RTBSE| Simulation step         Convergence     Electron number  ETRS Iterations
 RTBSE|            5326     0.87696819E-007     0.10000000E+002                5
 RTBSE| Simulation step         Convergence     Electron number  ETRS Iterations
 RTBSE|            5327     0.16334214E-007     0.10000000E+002                6
 RTBSE| Simulation step         Convergence     Electron number  ETRS Iterations
 RTBSE|            5328     0.19269539E-007     0.10000000E+002                6
 RTBSE| Simulation step         Convergence     Electron number  ETRS Iterations
 RTBSE|            5329     0.21700421E-007     0.10000000E+002                6
 RTBSE| Simulation step         Convergence     Electron number  ETRS Iterations
 RTBSE|            5330     0.23692566E-007     0.10000000E+002                6
 RTBSE| Simulation step         Convergence     Electron number  ETRS Iterations
 RTBSE|            5331     0.25368838E-007     0.10000000E+002                6
 RTBSE| Simulation step         Convergence     Electron number  ETRS Iterations
 RTBSE|            5332     0.26886997E-007     0.10000000E+002                6
 RTBSE| Simulation step         Convergence     Electron number  ETRS Iterations
 RTBSE|            5333     0.28353072E-007     0.10000000E+002                6
 RTBSE| Simulation step         Convergence     Electron number  ETRS Iterations
 RTBSE|            5334     0.29825222E-007     0.10000000E+002                6
 RTBSE| Simulation step         Convergence     Electron number  ETRS Iterations
 RTBSE|            5335     0.31383890E-007     0.10000000E+002                6
 RTBSE| Simulation step         Convergence     Electron number  ETRS Iterations
 RTBSE|            5336     0.32906755E-007     0.10000000E+002                6
 RTBSE| Simulation step         Convergence     Electron number  ETRS Iterations
 RTBSE|            5337     0.34292263E-007     0.10000000E+002                6
 RTBSE| Simulation step         Convergence     Electron number  ETRS Iterations
 RTBSE|            5338     0.35447490E-007     0.10000000E+002                6
 RTBSE| Simulation step         Convergence     Electron number  ETRS Iterations
 RTBSE|            5339     0.37403621E-007     0.10000000E+002                6
 RTBSE| Simulation step         Convergence     Electron number  ETRS Iterations
 RTBSE|            5340     0.39126788E-007     0.10000000E+002                6
 RTBSE| Simulation step         Convergence     Electron number  ETRS Iterations
 RTBSE|            5341     0.40105948E-007     0.10000000E+002                6
 RTBSE| Simulation step         Convergence     Electron number  ETRS Iterations
 RTBSE|            5342     0.40167727E-007     0.10000000E+002                6
 RTBSE| Simulation step         Convergence     Electron number  ETRS Iterations
 RTBSE|            5343     0.39212427E-007     0.10000000E+002                6
 RTBSE| Simulation step         Convergence     Electron number  ETRS Iterations
 RTBSE|            5344     0.37217789E-007     0.10000000E+002                6
 RTBSE| Simulation step         Convergence     Electron number  ETRS Iterations
 RTBSE|            5345     0.34216253E-007     0.10000000E+002                6
 RTBSE| Simulation step         Convergence     Electron number  ETRS Iterations
 RTBSE|            5346     0.30339250E-007     0.10000000E+002                6
 RTBSE| Simulation step         Convergence     Electron number  ETRS Iterations
 RTBSE|            5347     0.25778094E-007     0.10000000E+002                6
 RTBSE| Simulation step         Convergence     Electron number  ETRS Iterations
 RTBSE|            5348     0.20751639E-007     0.10000000E+002                6
 RTBSE| Simulation step         Convergence     Electron number  ETRS Iterations
 RTBSE|            5349     0.91626665E-007     0.10000000E+002                5
 RTBSE| Simulation step         Convergence     Electron number  ETRS Iterations
 RTBSE|            5350     0.71852834E-007     0.10000000E+002                5
 RTBSE| Simulation step         Convergence     Electron number  ETRS Iterations
 RTBSE|            5351     0.56284502E-007     0.10000000E+002                5
 RTBSE| Simulation step         Convergence     Electron number  ETRS Iterations
 RTBSE|            5352     0.77958245E-007     0.10000000E+002                5
 RTBSE| Simulation step         Convergence     Electron number  ETRS Iterations
 RTBSE|            5353     0.14224861E-007     0.10000000E+002                6
 RTBSE| Simulation step         Convergence     Electron number  ETRS Iterations
 RTBSE|            5354     0.16804103E-007     0.10000000E+002                6
 RTBSE| Simulation step         Convergence     Electron number  ETRS Iterations
 RTBSE|            5355     0.19005227E-007     0.10000000E+002                6
 RTBSE| Simulation step         Convergence     Electron number  ETRS Iterations
 RTBSE|            5356     0.20912575E-007     0.10000000E+002                6
 RTBSE| Simulation step         Convergence     Electron number  ETRS Iterations
 RTBSE|            5357     0.22612876E-007     0.10000000E+002                6
 RTBSE| Simulation step         Convergence     Electron number  ETRS Iterations
 RTBSE|            5358     0.24283476E-007     0.10000000E+002                6
 RTBSE| Simulation step         Convergence     Electron number  ETRS Iterations
 RTBSE|            5359     0.25921111E-007     0.10000000E+002                6
 RTBSE| Simulation step         Convergence     Electron number  ETRS Iterations
 RTBSE|            5360     0.27624712E-007     0.10000000E+002                6
 RTBSE| Simulation step         Convergence     Electron number  ETRS Iterations
 RTBSE|            5361     0.29351910E-007     0.10000000E+002                6
 RTBSE| Simulation step         Convergence     Electron number  ETRS Iterations
 RTBSE|            5362     0.31019049E-007     0.10000000E+002                6
 RTBSE| Simulation step         Convergence     Electron number  ETRS Iterations
 RTBSE|            5363     0.32460700E-007     0.10000000E+002                6
 RTBSE| Simulation step         Convergence     Electron number  ETRS Iterations
 RTBSE|            5364     0.33543319E-007     0.10000000E+002                6
 RTBSE| Simulation step         Convergence     Electron number  ETRS Iterations
 RTBSE|            5365     0.34852690E-007     0.10000000E+002                6
 RTBSE| Simulation step         Convergence     Electron number  ETRS Iterations
 RTBSE|            5366     0.36562129E-007     0.10000000E+002                6
 RTBSE| Simulation step         Convergence     Electron number  ETRS Iterations
 RTBSE|            5367     0.37551274E-007     0.10000000E+002                6
 RTBSE| Simulation step         Convergence     Electron number  ETRS Iterations
 RTBSE|            5368     0.37609407E-007     0.10000000E+002                6
 RTBSE| Simulation step         Convergence     Electron number  ETRS Iterations
 RTBSE|            5369     0.36628663E-007     0.10000000E+002                6
 RTBSE| Simulation step         Convergence     Electron number  ETRS Iterations
 RTBSE|            5370     0.34579791E-007     0.10000000E+002                6
 RTBSE| Simulation step         Convergence     Electron number  ETRS Iterations
 RTBSE|            5371     0.31498499E-007     0.10000000E+002                6
 RTBSE| Simulation step         Convergence     Electron number  ETRS Iterations
 RTBSE|            5372     0.27501672E-007     0.10000000E+002                6
 RTBSE| Simulation step         Convergence     Electron number  ETRS Iterations
 RTBSE|            5373     0.22786289E-007     0.10000000E+002                6
 RTBSE| Simulation step         Convergence     Electron number  ETRS Iterations
 RTBSE|            5374     0.99869078E-007     0.10000000E+002                5
 RTBSE| Simulation step         Convergence     Electron number  ETRS Iterations
 RTBSE|            5375     0.80926993E-007     0.10000000E+002                5

 -------------------------------------------------------------------------------
 -                                                                             -
 -                                DBCSR STATISTICS                             -
 -                                                                             -
 -------------------------------------------------------------------------------
 COUNTER                                    TOTAL       BLAS       SMM       ACC
 flops    13 x    26 x    13                35152     100.0%      0.0%      0.0%     
 flops    13 x    13 x    26               158184     100.0%      0.0%      0.0%     
 flops    67 x    64 x    67               574592     100.0%      0.0%      0.0%     
 flops    67 x    64 x    78               668928     100.0%      0.0%      0.0%     
 flops    78 x    64 x    67               668928     100.0%      0.0%      0.0%     
 flops    67 x    81 x    67               727218     100.0%      0.0%      0.0%     
 flops    78 x    64 x    78               778752     100.0%      0.0%      0.0%     
 flops    78 x    81 x    67               846612     100.0%      0.0%      0.0%     
 flops    67 x    81 x    78               846612     100.0%      0.0%      0.0%     
 flops    78 x    81 x    78               985608     100.0%      0.0%      0.0%     
 flops inhomo. stacks                           0       0.0%      0.0%      0.0%
 flops total                         6.290586E+06     100.0%      0.0%      0.0%
 flops max/rank                      1.902524E+06     100.0%      0.0%      0.0%
 matmuls inhomo. stacks                         0       0.0%      0.0%      0.0%
 matmuls total                                 30     100.0%      0.0%      0.0%
 number of processed stacks                    30     100.0%      0.0%      0.0%
 average stack size                                     1.0       0.0       0.0
 marketing flops                     6.144570E+06
 -------------------------------------------------------------------------------
 # multiplications                              8
 max memory usage/rank             462.307328E+06
 # max total images/rank                        1
 # max 3D layers                                1
 # MPI messages exchanged                      64
 MPI messages size (bytes):
  total size                       412.112000E+03
  min size                           0.000000E+00
  max size                          50.544000E+03
  average size                       6.439250E+03
 MPI breakdown and total messages size (bytes):
             size <=      128                  26                        0
       128 < size <=     8192                  30                    75712
      8192 < size <=    32768                   0                        0
     32768 < size <=   131072                   8                   336400
    131072 < size <=  4194304                   0                        0
   4194304 < size <= 16777216                   0                        0
  16777216 < size                               0                        0
 -------------------------------------------------------------------------------
 -                                                                             -
 -                      DBCSR MESSAGE PASSING PERFORMANCE                      -
 -                                                                             -
 -------------------------------------------------------------------------------
 ROUTINE             CALLS      AVE VOLUME [Bytes]
 MP_Bcast               11                     12.
 MP_Allreduce           87                     16.
 MP_Alltoall       2748408                    622.
 MP_ISend               64                   2166.
 MP_IRecv               64                   1438.
 -------------------------------------------------------------------------------

 -------------------------------------------------------------------------------
 -                                                                             -
 -                                DBM STATISTICS                               -
 -                                                                             -
 -------------------------------------------------------------------------------
    M  x    N  x    K                                          COUNT     PERCENT
    ?  x    ?  x    ?                                        5203440      50.00%
   ??  x  ???  x   ??                                        1734480      16.67%
   ??  x   ??  x  ???                                         867240       8.33%
   ??  x   ??  x >999                                         867240       8.33%
  ???  x   ??  x   ??                                         867240       8.33%
 >999  x   ??  x   ??                                         867240       8.33%
 -------------------------------------------------------------------------------
 Memory consumption                            Number of allocations  Size [MiB]
 Host                                                             15           1
 -------------------------------------------------------------------------------

 -------------------------------------------------------------------------------
 -                                                                             -
 -                                GRID STATISTICS                              -
 -                                                                             -
 -------------------------------------------------------------------------------
 LP    KERNEL             BACKEND                              COUNT     PERCENT
 4     collocate ortho    CPU                                    648      49.77%
 4     integrate ortho    CPU                                    648      49.77%
 0     collocate general  CPU                                      4       0.31%
 0     integrate general  CPU                                      2       0.15%
 -------------------------------------------------------------------------------

 MEMORY| Estimated peak process memory [MiB]                                 442

 -------------------------------------------------------------------------------
 ----                             MULTIGRID INFO                            ----
 -------------------------------------------------------------------------------
 count for grid        1:          28164          cutoff [a.u.]          200.00
 count for grid        2:          16366          cutoff [a.u.]           66.67
 count for grid        3:          13240          cutoff [a.u.]           22.22
 count for grid        4:           1554          cutoff [a.u.]            7.41
 total gridlevel count  :          59324

 -------------------------------------------------------------------------------
 -                                                                             -
 -                         MESSAGE PASSING PERFORMANCE                         -
 -                                                                             -
 -------------------------------------------------------------------------------

 ROUTINE             CALLS      AVE VOLUME [Bytes]
 MP_Group          4227831
 MP_Bcast          2168560                    494.
 MP_Allreduce      4771965                     25.
 MP_Sync           3252168
 MP_Alltoall       2385047                   1241.
 MP_SendRecv            78                1454279.
 MP_ISendRecv           75                1352451.
 MP_Wait           4119480
 MP_comm_split     2168120
 MP_ISend          5203461                  25340.
 MP_IRecv          5203461                  25197.
 -------------------------------------------------------------------------------


 -------------------------------------------------------------------------------
 -                                                                             -
 -                           R E F E R E N C E S                               -
 -                                                                             -
 -------------------------------------------------------------------------------
 
 CP2K version 2025.1 (Development Version), the CP2K developers group (2025).
 CP2K is freely available from https://www.cp2k.org/ .
 
 M. Graml, K. Zollner, D. Hernangómez-Pérez, P. E. Faria Junior, J. Wilhelm.
 J. Chem. Theory Comput. 20, 2202-2208 (2024).
 Low-scaling GW algorithm applied to twisted transition-metal dichalcogenide 
 heterobilayers.
 https://doi.org/10.1021/acs.jctc.3c01230

 T. D. Kuehne, M. Iannuzzi, M. Del Ben, V. V. Rybkin, P. Seewald, F. Stein, T. 
 Laino, R. Z. Khaliullin, O. Schuett, F. Schiffmann, D. Golze, J. Wilhelm, S. 
 Chulkov, M. H. Bani-Hashemian, V. Weber, U. Borstnik, M. Taillefumier, A. S. 
 Jakobovits, A. Lazzaro, H. Pabst, T. Mueller, R. Schade, M. Guidon, S. 
 Andermatt, N. Holmberg, G. K. Schenter, A. Hehn, A. Bussy, F. Belleflamme, G. 
 Tabacchi, A. Gloess, M. Lass, I. Bethune, C. J. Mundy, C. Plessl, M. Watkins, 
 J. VandeVondele, M. Krack, J. Hutter.
 J. Chem. Phys. 152, 194103 (2020).
 CP2K: An electronic structure and molecular dynamics software package - 
 Quickstep: Efficient and accurate electronic structure calculations.
 https://doi.org/10.1063/5.0007045

 O. Schuett, P. Messmer, J. Hutter, J. VandeVondele.
 Electronic Structure Calculations on Graphics Processing Units, 173-190 (2016).
 GPU-Accelerated Sparse Matrix-Matrix Multiplication for Linear Scaling Density 
 Functional Theory.
 https://doi.org/10.1002/9781118670712.ch8

 J. Hutter, M. Iannuzzi, F. Schiffmann, J. VandeVondele.
 WIREs Comput Mol Sci. 4, 15-25 (2014).
 CP2K: atomistic simulations of condensed matter systems.
 https://doi.org/10.1002/wcms.1159

 U. Borstnik, J. VandeVondele, V. Weber, J. Hutter.
 Parallel Comput. 40, 47-58 (2014).
 Sparse matrix multiplication: The distributed block-compressed sparse row 
 library.
 https://doi.org/10.1016/j.parco.2014.03.012

 L. Genovese, T. Deutsch, S. Goedecker.
 J. Chem. Phys. 127, 054704 (2007).
 Efficient and accurate three-dimensional Poisson solver for surface problems.
 https://doi.org/10.1063/1.2754685

 J. VandeVondele, J. Hutter.
 J. Chem. Phys. 127, 114105 (2007).
 Gaussian basis sets for accurate calculations on molecular systems in gas and 
 condensed phases.
 https://doi.org/10.1063/1.2770708

 L. Genovese, T. Deutsch, A. Neelov, S. Goedecker, G. Beylkin.
 J. Chem. Phys. 125, 074105 (2006).
 Efficient solution of Poisson's equation with free boundary conditions.
 https://doi.org/10.1063/1.2335442

 J. VandeVondele, M. Krack, F. Mohamed, M. Parrinello, T. Chassaing, J. Hutter.
 Comput. Phys. Commun. 167, 103-128 (2005).
 QUICKSTEP: Fast and accurate density functional calculations using a mixed 
 Gaussian and plane waves approach.
 https://doi.org/10.1016/j.cpc.2004.12.014

 M. Krack.
 Theor. Chem. Acc. 114, 145-152 (2005).
 Pseudopotentials for H to Kr optimized for gradient-corrected 
 exchange-correlation functionals.
 https://doi.org/10.1007/s00214-005-0655-y

 M. Frigo, S. G. Johnson.
 Proc. IEEE 93, 216-231 (2005).
 The design and implementation of FFTW3.
 https://doi.org/10.1109/JPROC.2004.840301

 C. Hartwigsen, S. Goedecker, J. Hutter.
 Phys. Rev. B 58, 3641-3662 (1998).
 Relativistic separable dual-space Gaussian pseudopotentials from H to Rn.
 https://doi.org/10.1103/PhysRevB.58.3641

 G. Lippert, J. Hutter, M. Parrinello.
 Mol. Phys. 92, 477-487 (1997).
 A hybrid Gaussian and plane wave density functional scheme.
 https://doi.org/10.1080/002689797170220

 S. Goedecker, M. Teter, J. Hutter.
 Phys. Rev. B 54, 1703-1710 (1996).
 Separable dual-space Gaussian pseudopotentials.
 https://doi.org/10.1103/PhysRevB.54.1703

 J. P. Perdew, K. Burke, M. Ernzerhof.
 Phys. Rev. Lett. 77, 3865-3868 (1996).
 Generalized gradient approximation made simple.
 https://doi.org/10.1103/PhysRevLett.77.3865


 -------------------------------------------------------------------------------
 -                                                                             -
 -                                T I M I N G                                  -
 -                                                                             -
 -------------------------------------------------------------------------------
 SUBROUTINE                       CALLS  ASD         SELF TIME        TOTAL TIME
                                MAXIMUM       AVERAGE  MAXIMUM  AVERAGE  MAXIMUM
 CP2K                                 1  1.0    0.004    0.006  642.357  642.357
 run_propagation_bse                  1  2.0    1.110    3.711  642.088  642.146
 etrs_scf_loop                     5376  3.0    0.113    0.121  622.781  622.907
 update_effective_ham             36134  4.0    0.612    0.625  607.359  607.655
 get_sigma                       108405  5.0    1.052    1.093  591.327  591.373
 dbt_total                       325216  6.0    1.061    1.093  568.945  568.995
 dbt_contract                    325215  7.0    6.749    6.817  566.479  567.231
 dbt_tas_multiply                650430  9.5    0.591    0.601  410.480  411.036
 dbt_tas_total                   650430 10.5   24.617   24.789  408.734  408.746
 dbt_tas_estimate_result_nze     325215 10.0   18.825   19.821  139.709  139.723
 dbt_remap                       433620  8.0   22.727   22.847  112.171  112.971
 dbt_tas_distribution_new       2926951 11.9   61.323   61.511  105.569  105.834
 reshape_mm_small                650430 11.5   30.556   30.658   84.585   84.767
 reshape_mm_compatible           650430 11.5    5.353    5.408   84.072   84.520
 dbt_tas_create_split           2168110 12.2    1.529    1.586   83.161   84.044
 dbt_tas_create_split_rows_or_c 2168110 13.2    5.082    5.175   81.632   82.568
 dbt_tas_dbm                     650430 11.5    0.509    0.511   82.308   82.329
 dbm_multiply                    650430 13.5   78.916   80.660   78.916   80.660
 mp_cart_create                 4372489 12.6   50.490   51.540   52.715   53.860
 change_split                    758835 11.9    2.134    2.149   53.469   53.549
 dbt_distribution_new_expert     867256  9.5    4.664    4.735   48.243   48.360
 dbt_tas_reshape                1084050 12.0    4.044    4.056   44.747   46.433
 dbt_copy                        433621  8.5    0.685    0.708   42.195   44.701
 dbt_reshape                     325215  9.7   27.474   29.054   36.301   38.513
 dbt_tas_mm_3N                   216810 12.5    0.124    0.128   35.538   35.945
 dbt_tas_replicate               650430 11.5    8.173    8.206   28.969   29.095
 dbt_tas_mm_2                    216810 12.5    0.216    0.222   26.595   26.602
 mp_comm_dup                    1842899 14.6   24.781   25.417   25.780   26.466
 mp_comm_split_direct           2168112 14.2   22.816   23.018   23.424   23.599
 reshape_mm_template             216810 12.5    5.957    5.967   23.062   23.405
 dbt_create_new                  433628  9.0    3.090    3.162   22.069   22.117
 copy_dbcsr_to_fm                144654  6.0    1.005    1.034   19.809   19.893
 dbt_tas_mm_1N                   216810 12.5    0.119    0.123   18.107   18.832
 dbt_tas_reshape_buffer_obtain  1084050 13.0   10.265   10.796   15.651   17.064
 dbt_tas_communicate_buffer     1734480 13.8    4.818    4.841   16.378   16.582
 dbcsr_complete_redistribute     289301  6.6    4.402    4.442   16.091   16.193
 mp_sync                        3252168 10.6   10.951   15.726   10.951   15.726
 mp_comm_free                   8672883 11.2   14.528   15.008   14.528   15.008
 dbt_tas_reserve_blocks_index   2601725 13.1    2.679    2.727   13.142   14.339
 dbt_pgrid_create_expert         867260 10.5    0.862    0.873   12.649   13.299
 -------------------------------------------------------------------------------

 The number of warnings for this run is : 4
 
 -------------------------------------------------------------------------------
  **** **** ******  **  PROGRAM ENDED AT                 2025-02-10 12:11:58.312
 ***** ** ***  *** **   PROGRAM RAN ON                              pc1022400703
 **    ****   ******    PROGRAM RAN BY                                  mas05075
 ***** **    ** ** **   PROGRAM PROCESS ID                                  9998
  **** **  *******  **  PROGRAM STOPPED IN /home/mas05075/Science/RTBSE/test_2nd
                                           _harmonic/CO/2/e_x/Results_1e11
