 DBCSR| CPU Multiplication driver                                           BLAS (U)
 DBCSR| Multrec recursion limit                                              512 (U)
 DBCSR| Multiplication stack size                                           1000 (D)
 DBCSR| Maximum elements for images                                    UNLIMITED (U)
 DBCSR| Multiplicative factor virtual images                                   1 (U)
 DBCSR| Use multiplication densification                                       T (D)
 DBCSR| Multiplication size stacks                                             3 (U)
 DBCSR| Use memory pool for CPU allocation                                     F (U)
 DBCSR| Number of 3D layers                                               SINGLE (U)
 DBCSR| Use MPI memory allocation                                              F (U)
 DBCSR| Use RMA algorithm                                                      F (U)
 DBCSR| Use Communication thread                                               T (U)
 DBCSR| Communication thread load                                             87 (D)
 DBCSR| MPI: My process id                                                     0
 DBCSR| MPI: Number of processes                                               4
 DBCSR| OMP: Current number of threads                                         1
 DBCSR| OMP: Max number of threads                                             1
 DBCSR| Split modifier for TAS multiplication algorithm                  1.0E+00 (U)


  **** **** ******  **  PROGRAM STARTED AT               2025-02-10 13:24:01.519
 ***** ** ***  *** **   PROGRAM STARTED ON                          pc1022400703
 **    ****   ******    PROGRAM STARTED BY                              mas05075
 ***** **    ** ** **   PROGRAM PROCESS ID                                 12719
  **** **  *******  **  PROGRAM STARTED IN /home/mas05075/Science/RTBSE/test_2nd
                                           _harmonic/CO/2/e_x/Results_3e12

 CP2K| version string:                 CP2K version 2025.1 (Development Version)
 CP2K| source code revision number:                                  git:26096ef
 CP2K| cp2kflags: omp libint fftw3 libxc parallel scalapack max_contr=4         
 CP2K| is freely available from                            https://www.cp2k.org/
 CP2K| Program compiled at                          Fri 31 Jan 15:01:24 CET 2025
 CP2K| Program compiled on                                          pc1022400703
 CP2K| Program compiled for                                             personal
 CP2K| Data directory path                     /home/mas05075/Software/CP2K/data
 CP2K| Input file name                                                 rtbse.inp

 GLOBAL| Force Environment number                                              1
 GLOBAL| Basis set file name             BASIS_GTH_MOLOPT_AUG_for_excited_states
 GLOBAL| Potential file name                                      GTH_POTENTIALS
 GLOBAL| MM Potential file name                                     MM_POTENTIAL
 GLOBAL| Coordinate file name                                      __STD_INPUT__
 GLOBAL| Method name                                                        CP2K
 GLOBAL| Project name                                                         CO
 GLOBAL| Run type                                                 RT_PROPAGATION
 GLOBAL| FFT library                                                       FFTW3
 GLOBAL| Diagonalization library                                       ScaLAPACK
 GLOBAL| DGEMM library                                                      BLAS
 GLOBAL| Orthonormality check for eigenvectors                          DISABLED
 GLOBAL| Matrix multiplication library                                 ScaLAPACK
 GLOBAL| All-to-all communication in single precision                          F
 GLOBAL| FFTs using library dependent lengths                                  F
 GLOBAL| Grid backend                                                       AUTO
 GLOBAL| Global print level                                               MEDIUM
 GLOBAL| MPI I/O enabled                                                       T
 GLOBAL| Total number of message passing processes                             4
 GLOBAL| Number of threads for this process                                    1
 GLOBAL| This output is from process                                           0
 GLOBAL| OpenMP stack size per thread (OMP_STACKSIZE)                    default
 GLOBAL| CPU model name                   AMD Ryzen 7 7730U with Radeon Graphics

 MEMORY| system memory details [Kb]
 MEMORY|                        rank 0           min           max       average
 MEMORY| MemTotal             39956460      39956460      39956460      39956460
 MEMORY| MemFree              34281648      34281648      34281648      34281648
 MEMORY| Buffers                148080        148080        148080        148080
 MEMORY| Cached                3236336       3236336       3236336       3236336
 MEMORY| Slab                   256100        256100        256100        256100
 MEMORY| SReclaimable           135212        135212        135212        135212
 MEMORY| MemLikelyFree        37801276      37801276      37801276      37801276


 *** Fundamental physical constants (SI units) ***

 *** Literature: B. J. Mohr and B. N. Taylor,
 ***             CODATA recommended values of the fundamental physical
 ***             constants: 2006, Web Version 5.1
 ***             http://physics.nist.gov/constants

 Speed of light in vacuum [m/s]                             2.99792458000000E+08
 Magnetic constant or permeability of vacuum [N/A**2]       1.25663706143592E-06
 Electric constant or permittivity of vacuum [F/m]          8.85418781762039E-12
 Planck constant (h) [J*s]                                  6.62606896000000E-34
 Planck constant (h-bar) [J*s]                              1.05457162825177E-34
 Elementary charge [C]                                      1.60217648700000E-19
 Electron mass [kg]                                         9.10938215000000E-31
 Electron g factor [ ]                                     -2.00231930436220E+00
 Proton mass [kg]                                           1.67262163700000E-27
 Fine-structure constant                                    7.29735253760000E-03
 Rydberg constant [1/m]                                     1.09737315685270E+07
 Avogadro constant [1/mol]                                  6.02214179000000E+23
 Boltzmann constant [J/K]                                   1.38065040000000E-23
 Atomic mass unit [kg]                                      1.66053878200000E-27
 Bohr radius [m]                                            5.29177208590000E-11

 *** Conversion factors ***

 [u] -> [a.u.]                                              1.82288848426455E+03
 [Angstrom] -> [Bohr] = [a.u.]                              1.88972613288564E+00
 [a.u.] = [Bohr] -> [Angstrom]                              5.29177208590000E-01
 [a.u.] -> [s]                                              2.41888432650478E-17
 [a.u.] -> [fs]                                             2.41888432650478E-02
 [a.u.] -> [J]                                              4.35974393937059E-18
 [a.u.] -> [N]                                              8.23872205491840E-08
 [a.u.] -> [K]                                              3.15774647902944E+05
 [a.u.] -> [kJ/mol]                                         2.62549961709828E+03
 [a.u.] -> [kcal/mol]                                       6.27509468713739E+02
 [a.u.] -> [Pa]                                             2.94210107994716E+13
 [a.u.] -> [bar]                                            2.94210107994716E+08
 [a.u.] -> [atm]                                            2.90362800883016E+08
 [a.u.] -> [eV]                                             2.72113838565563E+01
 [a.u.] -> [Hz]                                             6.57968392072181E+15
 [a.u.] -> [1/cm] (wave numbers)                            2.19474631370540E+05
 [a.u./Bohr**2] -> [1/cm]                                   5.14048714338585E+03
 

 CELL_TOP| Volume [angstrom^3]:                                      1000.000000
 CELL_TOP| Vector a [angstrom    10.000     0.000     0.000   |a| =    10.000000
 CELL_TOP| Vector b [angstrom     0.000    10.000     0.000   |b| =    10.000000
 CELL_TOP| Vector c [angstrom     0.000     0.000    10.000   |c| =    10.000000
 CELL_TOP| Angle (b,c), alpha [degree]:                                90.000000
 CELL_TOP| Angle (a,c), beta  [degree]:                                90.000000
 CELL_TOP| Angle (a,b), gamma [degree]:                                90.000000
 CELL_TOP| Numerically orthorhombic:                                         YES
 CELL_TOP| Periodicity                                                      NONE

 GENERATE|  Preliminary Number of Bonds generated:                             0
 GENERATE|  Achieved consistency in connectivity generation.

 CELL| Volume [angstrom^3]:                                          1000.000000
 CELL| Vector a [angstrom]:      10.000     0.000     0.000   |a| =    10.000000
 CELL| Vector b [angstrom]:       0.000    10.000     0.000   |b| =    10.000000
 CELL| Vector c [angstrom]:       0.000     0.000    10.000   |c| =    10.000000
 CELL| Angle (b,c), alpha [degree]:                                    90.000000
 CELL| Angle (a,c), beta  [degree]:                                    90.000000
 CELL| Angle (a,b), gamma [degree]:                                    90.000000
 CELL| Numerically orthorhombic:                                             YES
 CELL| Periodicity                                                          NONE

 CELL_REF| Volume [angstrom^3]:                                      1000.000000
 CELL_REF| Vector a [angstrom    10.000     0.000     0.000   |a| =    10.000000
 CELL_REF| Vector b [angstrom     0.000    10.000     0.000   |b| =    10.000000
 CELL_REF| Vector c [angstrom     0.000     0.000    10.000   |c| =    10.000000
 CELL_REF| Angle (b,c), alpha [degree]:                                90.000000
 CELL_REF| Angle (a,c), beta  [degree]:                                90.000000
 CELL_REF| Angle (a,b), gamma [degree]:                                90.000000
 CELL_REF| Numerically orthorhombic:                                         YES
 CELL_REF| Periodicity                                                      NONE

 *******************************************************************************
 *******************************************************************************
 **                                                                           **
 **     #####                         ##              ##                      **
 **    ##   ##            ##          ##              ##                      **
 **   ##     ##                       ##            ######                    **
 **   ##     ##  ##   ##  ##   #####  ##  ##   ####   ##    #####    #####    **
 **   ##     ##  ##   ##  ##  ##      ## ##   ##      ##   ##   ##  ##   ##   **
 **   ##  ## ##  ##   ##  ##  ##      ####     ###    ##   ######   ######    **
 **    ##  ###   ##   ##  ##  ##      ## ##      ##   ##   ##       ##        **
 **     #######   #####   ##   #####  ##  ##  ####    ##    #####   ##        **
 **           ##                                                    ##        **
 **                                                                           **
 **                                                ... make the atoms dance   **
 **                                                                           **
 **            Copyright (C) by CP2K developers group (2000-2025)             **
 **                      J. Chem. Phys. 152, 194103 (2020)                    **
 **                                                                           **
 *******************************************************************************

 DFT| Spin restricted Kohn-Sham (RKS) calculation                            RKS
 DFT| Multiplicity                                                             1
 DFT| Number of spin states                                                    1
 DFT| Charge                                                                   0
 DFT| Self-interaction correction (SIC)                                       NO
 DFT| Cutoffs: density                                              1.000000E-10
 DFT|          gradient                                             1.000000E-10
 DFT|          tau                                                  1.000000E-10
 DFT|          cutoff_smoothing_range                               0.000000E+00
 DFT| XC density smoothing                                                  NONE
 DFT| XC derivatives                                                          PW

 FUNCTIONAL| PBE:
 FUNCTIONAL| J.P.Perdew, K.Burke, M.Ernzerhof, Phys. Rev. Letter, vol. 77, n 18,
 FUNCTIONAL|  pp. 3865-3868, (1996) {spin unpolarized}                          


 QS| Method:                                                                 GPW
 QS| Density plane wave grid type                        NON-SPHERICAL FULLSPACE
 QS| Number of grid levels:                                                    4
 QS| Density cutoff [a.u.]:                                                200.0
 QS| Multi grid cutoff [a.u.]: 1) grid level                               200.0
 QS|                           2) grid level                                66.7
 QS|                           3) grid level                                22.2
 QS|                           4) grid level                                 7.4
 QS| Grid level progression factor:                                          3.0
 QS| Relative density cutoff [a.u.]:                                        25.0
 QS| Interaction thresholds: eps_pgf_orb:                                1.0E-05
 QS|                         eps_filter_matrix:                          0.0E+00
 QS|                         eps_core_charge:                            1.0E-12
 QS|                         eps_rho_gspace:                             1.0E-10
 QS|                         eps_rho_rspace:                             1.0E-10
 QS|                         eps_gvg_rspace:                             1.0E-05
 QS|                         eps_ppl:                                    1.0E-02
 QS|                         eps_ppnl:                                   1.0E-07


 ATOMIC KIND INFORMATION

  1. Atomic kind: C                                     Number of atoms:       1

     Orbital Basis Set                                        aug-SZV-MOLOPT-GTH

       Number of orbital shell sets:                                           1
       Number of orbital shells:                                               5
       Number of primitive Cartesian functions:                                6
       Number of Cartesian basis functions:                                   14
       Number of spherical basis functions:                                   13
       Norm type:                                                              2

       Normalised Cartesian orbitals:

                        Set   Shell   Orbital            Exponent    Coefficient

                          1       1    2s                0.128212      -0.022789
                                                         0.170000       0.000000
                                                         0.348157      -0.219794
                                                         0.769911      -0.209686
                                                         2.113016       0.213043
                                                         5.605331       0.322515

                          1       2    3s                0.128212      -0.011218
                                                         0.170000       0.211516
                                                         0.348157      -0.017308
                                                         0.769911       0.000059
                                                         2.113016       0.000000
                                                         5.605331       0.000000

                          1       3    3px               0.128212      -0.027849
                                                         0.170000       0.000000
                                                         0.348157      -0.139743
                                                         0.769911      -0.374851
                                                         2.113016      -0.642521
                                                         5.605331      -0.703879
                          1       3    3py               0.128212      -0.027849
                                                         0.170000       0.000000
                                                         0.348157      -0.139743
                                                         0.769911      -0.374851
                                                         2.113016      -0.642521
                                                         5.605331      -0.703879
                          1       3    3pz               0.128212      -0.027849
                                                         0.170000       0.000000
                                                         0.348157      -0.139743
                                                         0.769911      -0.374851
                                                         2.113016      -0.642521
                                                         5.605331      -0.703879

                          1       4    4px               0.128212      -0.292809
                                                         0.170000       0.260881
                                                         0.348157       0.116498
                                                         0.769911      -0.184036
                                                         2.113016       0.000000
                                                         5.605331       0.000000
                          1       4    4py               0.128212      -0.292809
                                                         0.170000       0.260881
                                                         0.348157       0.116498
                                                         0.769911      -0.184036
                                                         2.113016       0.000000
                                                         5.605331       0.000000
                          1       4    4pz               0.128212      -0.292809
                                                         0.170000       0.260881
                                                         0.348157       0.116498
                                                         0.769911      -0.184036
                                                         2.113016       0.000000
                                                         5.605331       0.000000

                          1       5    4dx2              0.128212       0.038324
                                                         0.170000       0.009466
                                                         0.348157       0.001927
                                                         0.769911       0.071948
                                                         2.113016       0.000000
                                                         5.605331       0.000000
                          1       5    4dxy              0.128212       0.066380
                                                         0.170000       0.016396
                                                         0.348157       0.003338
                                                         0.769911       0.124617
                                                         2.113016       0.000000
                                                         5.605331       0.000000
                          1       5    4dxz              0.128212       0.066380
                                                         0.170000       0.016396
                                                         0.348157       0.003338
                                                         0.769911       0.124617
                                                         2.113016       0.000000
                                                         5.605331       0.000000
                          1       5    4dy2              0.128212       0.038324
                                                         0.170000       0.009466
                                                         0.348157       0.001927
                                                         0.769911       0.071948
                                                         2.113016       0.000000
                                                         5.605331       0.000000
                          1       5    4dyz              0.128212       0.066380
                                                         0.170000       0.016396
                                                         0.348157       0.003338
                                                         0.769911       0.124617
                                                         2.113016       0.000000
                                                         5.605331       0.000000
                          1       5    4dz2              0.128212       0.038324
                                                         0.170000       0.009466
                                                         0.348157       0.001927
                                                         0.769911       0.071948
                                                         2.113016       0.000000
                                                         5.605331       0.000000

     RI Auxiliary Basis Set             RI_aug-SZV-MOLOPT-GTH_N_RI_067_s_p_d_f_g

       Number of orbital shell sets:                                          19
       Number of orbital shells:                                              19
       Number of primitive Cartesian functions:                               19
       Number of Cartesian basis functions:                                   81
       Number of spherical basis functions:                                   67
       Norm type:                                                              2

       Normalised Cartesian orbitals:

                        Set   Shell   Orbital            Exponent    Coefficient

                          1       1    1s                0.250759       0.252553

                          2       1    2s                0.495527       0.420930

                          3       1    3s                1.034440       0.731037

                          4       1    4s                2.235594       1.303031

                          5       1    5s                4.650070       2.256860

                          6       1    6s                9.267188       3.785481

                          7       1    7px               0.251679       0.254096
                          7       1    7py               0.251679       0.254096
                          7       1    7pz               0.251679       0.254096

                          8       1    8px               0.674377       0.871102
                          8       1    8py               0.674377       0.871102
                          8       1    8pz               0.674377       0.871102

                          9       1    9px               1.686181       2.738862
                          9       1    9py               1.686181       2.738862
                          9       1    9pz               1.686181       2.738862

                         10       1   10px               3.960243       7.963288
                         10       1   10py               3.960243       7.963288
                         10       1   10pz               3.960243       7.963288

                         11       1   11px               9.275007      23.071876
                         11       1   11py               9.275007      23.071876
                         11       1   11pz               9.275007      23.071876

                         12       1   12dx2              0.308978       0.210758
                         12       1   12dxy              0.308978       0.365043
                         12       1   12dxz              0.308978       0.365043
                         12       1   12dy2              0.308978       0.210758
                         12       1   12dyz              0.308978       0.365043
                         12       1   12dz2              0.308978       0.210758

                         13       1   13dx2              0.831349       1.191325
                         13       1   13dxy              0.831349       2.063436
                         13       1   13dxz              0.831349       2.063436
                         13       1   13dy2              0.831349       1.191325
                         13       1   13dyz              0.831349       2.063436
                         13       1   13dz2              0.831349       1.191325

                         14       1   14dx2              1.708593       4.202687
                         14       1   14dxy              1.708593       7.279267
                         14       1   14dxz              1.708593       7.279267
                         14       1   14dy2              1.708593       4.202687
                         14       1   14dyz              1.708593       7.279267
                         14       1   14dz2              1.708593       4.202687

                         15       1   15dx2              4.058751      19.102762
                         15       1   15dxy              4.058751      33.086954
                         15       1   15dxz              4.058751      33.086954
                         15       1   15dy2              4.058751      19.102762
                         15       1   15dyz              4.058751      33.086954
                         15       1   15dz2              4.058751      19.102762

                         16       1   16dx2              9.335269      82.059989
                         16       1   16dxy              9.335269     142.132070
                         16       1   16dxz              9.335269     142.132070
                         16       1   16dy2              9.335269      82.059989
                         16       1   16dyz              9.335269     142.132070
                         16       1   16dz2              9.335269      82.059989

                         17       1   17fx3              0.357831       0.145790
                         17       1   17fx2y             0.357831       0.325997
                         17       1   17fx2z             0.357831       0.325997
                         17       1   17fxy2             0.357831       0.325997
                         17       1   17fxyz             0.357831       0.564644
                         17       1   17fxz2             0.357831       0.325997
                         17       1   17fy3              0.357831       0.145790
                         17       1   17fy2z             0.357831       0.325997
                         17       1   17fyz2             0.357831       0.325997
                         17       1   17fz3              0.357831       0.145790

                         18       1   18fx3              1.699212       4.853011
                         18       1   18fx2y             1.699212      10.851663
                         18       1   18fx2z             1.699212      10.851663
                         18       1   18fxy2             1.699212      10.851663
                         18       1   18fxyz             1.699212      18.795632
                         18       1   18fxz2             1.699212      10.851663
                         18       1   18fy3              1.699212       4.853011
                         18       1   18fy2z             1.699212      10.851663
                         18       1   18fyz2             1.699212      10.851663
                         18       1   18fz3              1.699212       4.853011

                         19       1   19fx3              9.330503     223.996314
                         19       1   19fx2y             9.330503     500.870985
                         19       1   19fx2z             9.330503     500.870985
                         19       1   19fxy2             9.330503     500.870985
                         19       1   19fxyz             9.330503     867.533994
                         19       1   19fxz2             9.330503     500.870985
                         19       1   19fy3              9.330503     223.996314
                         19       1   19fy2z             9.330503     500.870985
                         19       1   19fyz2             9.330503     500.870985
                         19       1   19fz3              9.330503     223.996314

       Atomic covalent radius [Angstrom]:                                  0.770

       Atomic van der Waals radius [Angstrom]:                             1.700

     GTH Potential information for                                       GTH-PBE

       Description:                       Goedecker-Teter-Hutter pseudopotential
                                           Goedecker et al., PRB 54, 1703 (1996)
                                          Hartwigsen et al., PRB 58, 3641 (1998)
                                                      Krack, TCA 114, 145 (2005)

       Gaussian exponent of the core charge distribution:               4.364419
       Electronic configuration (s p d ...):                               2   2

       Parameters of the local part of the GTH pseudopotential:

                          rloc        C1          C2          C3          C4
                        0.338471   -8.803674    1.339211

       Parameters of the non-local part of the GTH pseudopotential:

                   l      r(l)      h(i,j,l)

                   0    0.302576    9.622487
                   1    0.291507

  2. Atomic kind: O                                     Number of atoms:       1

     Orbital Basis Set                                        aug-SZV-MOLOPT-GTH

       Number of orbital shell sets:                                           1
       Number of orbital shells:                                               5
       Number of primitive Cartesian functions:                                6
       Number of Cartesian basis functions:                                   14
       Number of spherical basis functions:                                   13
       Norm type:                                                              2

       Normalised Cartesian orbitals:

                        Set   Shell   Orbital            Exponent    Coefficient

                          1       1    2s                0.162492      -0.033677
                                                         0.200000       0.000000
                                                         0.496955      -0.274061
                                                         1.388401      -0.301641
                                                         3.849621       0.208811
                                                        10.389228       0.396646

                          1       2    3s                0.162492      -0.361060
                                                         0.200000       0.497815
                                                         0.496955       0.202465
                                                         1.388401       0.095383
                                                         3.849621       0.000000
                                                        10.389228       0.000000

                          1       3    3px               0.162492      -0.035541
                                                         0.200000       0.000000
                                                         0.496955      -0.253695
                                                         1.388401      -0.761951
                                                         3.849621      -1.371928
                                                        10.389228      -1.530415
                          1       3    3py               0.162492      -0.035541
                                                         0.200000       0.000000
                                                         0.496955      -0.253695
                                                         1.388401      -0.761951
                                                         3.849621      -1.371928
                                                        10.389228      -1.530415
                          1       3    3pz               0.162492      -0.035541
                                                         0.200000       0.000000
                                                         0.496955      -0.253695
                                                         1.388401      -0.761951
                                                         3.849621      -1.371928
                                                        10.389228      -1.530415

                          1       4    4px               0.162492       0.038040
                                                         0.200000       0.066991
                                                         0.496955       0.157162
                                                         1.388401       0.636473
                                                         3.849621       0.000000
                                                        10.389228       0.000000
                          1       4    4py               0.162492       0.038040
                                                         0.200000       0.066991
                                                         0.496955       0.157162
                                                         1.388401       0.636473
                                                         3.849621       0.000000
                                                        10.389228       0.000000
                          1       4    4pz               0.162492       0.038040
                                                         0.200000       0.066991
                                                         0.496955       0.157162
                                                         1.388401       0.636473
                                                         3.849621       0.000000
                                                        10.389228       0.000000

                          1       5    4dx2              0.162492      -0.093119
                                                         0.200000       0.067810
                                                         0.496955      -0.233391
                                                         1.388401       0.119464
                                                         3.849621       0.000000
                                                        10.389228       0.000000
                          1       5    4dxy              0.162492      -0.161287
                                                         0.200000       0.117451
                                                         0.496955      -0.404245
                                                         1.388401       0.206919
                                                         3.849621       0.000000
                                                        10.389228       0.000000
                          1       5    4dxz              0.162492      -0.161287
                                                         0.200000       0.117451
                                                         0.496955      -0.404245
                                                         1.388401       0.206919
                                                         3.849621       0.000000
                                                        10.389228       0.000000
                          1       5    4dy2              0.162492      -0.093119
                                                         0.200000       0.067810
                                                         0.496955      -0.233391
                                                         1.388401       0.119464
                                                         3.849621       0.000000
                                                        10.389228       0.000000
                          1       5    4dyz              0.162492      -0.161287
                                                         0.200000       0.117451
                                                         0.496955      -0.404245
                                                         1.388401       0.206919
                                                         3.849621       0.000000
                                                        10.389228       0.000000
                          1       5    4dz2              0.162492      -0.093119
                                                         0.200000       0.067810
                                                         0.496955      -0.233391
                                                         1.388401       0.119464
                                                         3.849621       0.000000
                                                        10.389228       0.000000

     RI Auxiliary Basis Set             RI_aug-SZV-MOLOPT-GTH_N_RI_078_s_p_d_f_g

       Number of orbital shell sets:                                          22
       Number of orbital shells:                                              22
       Number of primitive Cartesian functions:                               22
       Number of Cartesian basis functions:                                   95
       Number of spherical basis functions:                                   78
       Norm type:                                                              2

       Normalised Cartesian orbitals:

                        Set   Shell   Orbital            Exponent    Coefficient

                          1       1    1s                0.401594       0.359543

                          2       1    2s                0.755894       0.577771

                          3       1    3s                1.416722       0.925494

                          4       1    4s                2.650205       1.480368

                          5       1    5s                4.956718       2.367586

                          6       1    6s                9.262290       3.783980

                          7       1    7s               17.311568       6.048705

                          8       1    8px               0.366288       0.406180
                          8       1    8py               0.366288       0.406180
                          8       1    8pz               0.366288       0.406180

                          9       1    9px               0.838631       1.143941
                          9       1    9py               0.838631       1.143941
                          9       1    9pz               0.838631       1.143941

                         10       1   10px               1.790515       2.952314
                         10       1   10py               1.790515       2.952314
                         10       1   10pz               1.790515       2.952314

                         11       1   11px               3.856077       7.702331
                         11       1   11py               3.856077       7.702331
                         11       1   11pz               3.856077       7.702331

                         12       1   12px               8.163201      19.668248
                         12       1   12py               8.163201      19.668248
                         12       1   12pz               8.163201      19.668248

                         13       1   13px              17.241147      50.078092
                         13       1   13py              17.241147      50.078092
                         13       1   13pz              17.241147      50.078092

                         14       1   14dx2              0.406104       0.340035
                         14       1   14dxy              0.406104       0.588958
                         14       1   14dxz              0.406104       0.588958
                         14       1   14dy2              0.406104       0.340035
                         14       1   14dyz              0.406104       0.588958
                         14       1   14dz2              0.406104       0.340035

                         15       1   15dx2              1.037680       1.755985
                         15       1   15dxy              1.037680       3.041455
                         15       1   15dxz              1.037680       3.041455
                         15       1   15dy2              1.037680       1.755985
                         15       1   15dyz              1.037680       3.041455
                         15       1   15dz2              1.037680       1.755985

                         16       1   16dx2              2.651658       9.069121
                         16       1   16dxy              2.651658      15.708178
                         16       1   16dxz              2.651658      15.708178
                         16       1   16dy2              2.651658       9.069121
                         16       1   16dyz              2.651658      15.708178
                         16       1   16dz2              2.651658       9.069121

                         17       1   17dx2              6.778565      46.870600
                         17       1   17dxy              6.778565      81.182261
                         17       1   17dxz              6.778565      81.182261
                         17       1   17dy2              6.778565      46.870600
                         17       1   17dyz              6.778565      81.182261
                         17       1   17dz2              6.778565      46.870600

                         18       1   18dx2             17.317084     241.958178
                         18       1   18dxy             17.317084     419.083857
                         18       1   18dxz             17.317084     419.083857
                         18       1   18dy2             17.317084     241.958178
                         18       1   18dyz             17.317084     419.083857
                         18       1   18dz2             17.317084     241.958178

                         19       1   19fx3              0.445310       0.238476
                         19       1   19fx2y             0.445310       0.533248
                         19       1   19fx2z             0.445310       0.533248
                         19       1   19fxy2             0.445310       0.533248
                         19       1   19fxyz             0.445310       0.923612
                         19       1   19fxz2             0.445310       0.533248
                         19       1   19fy3              0.445310       0.238476
                         19       1   19fy2z             0.445310       0.533248
                         19       1   19fyz2             0.445310       0.533248
                         19       1   19fz3              0.445310       0.238476

                         20       1   20fx3              1.340594       2.846906
                         20       1   20fx2y             1.340594       6.365876
                         20       1   20fx2z             1.340594       6.365876
                         20       1   20fxy2             1.340594       6.365876
                         20       1   20fxyz             1.340594      11.026020
                         20       1   20fxz2             1.340594       6.365876
                         20       1   20fy3              1.340594       2.846906
                         20       1   20fy2z             1.340594       6.365876
                         20       1   20fyz2             1.340594       6.365876
                         20       1   20fz3              1.340594       2.846906

                         21       1   21fx3              4.941598      53.598921
                         21       1   21fx2y             4.941598     119.850830
                         21       1   21fx2z             4.941598     119.850830
                         21       1   21fxy2             4.941598     119.850830
                         21       1   21fxyz             4.941598     207.587727
                         21       1   21fxz2             4.941598     119.850830
                         21       1   21fy3              4.941598      53.598921
                         21       1   21fy2z             4.941598     119.850830
                         21       1   21fyz2             4.941598     119.850830
                         21       1   21fz3              4.941598      53.598921

                         22       1   22fx3             17.301792     898.792404
                         22       1   22fx2y            17.301792    2009.760913
                         22       1   22fx2z            17.301792    2009.760913
                         22       1   22fxy2            17.301792    2009.760913
                         22       1   22fxyz            17.301792    3481.008013
                         22       1   22fxz2            17.301792    2009.760913
                         22       1   22fy3             17.301792     898.792404
                         22       1   22fy2z            17.301792    2009.760913
                         22       1   22fyz2            17.301792    2009.760913
                         22       1   22fz3             17.301792     898.792404

       Atomic covalent radius [Angstrom]:                                  0.730

       Atomic van der Waals radius [Angstrom]:                             1.520

     GTH Potential information for                                       GTH-PBE

       Description:                       Goedecker-Teter-Hutter pseudopotential
                                           Goedecker et al., PRB 54, 1703 (1996)
                                          Hartwigsen et al., PRB 58, 3641 (1998)
                                                      Krack, TCA 114, 145 (2005)

       Gaussian exponent of the core charge distribution:               8.360253
       Electronic configuration (s p d ...):                               2   4

       Parameters of the local part of the GTH pseudopotential:

                          rloc        C1          C2          C3          C4
                        0.244554  -16.667215    2.487311

       Parameters of the non-local part of the GTH pseudopotential:

                   l      r(l)      h(i,j,l)

                   0    0.220956   18.337458
                   1    0.211332


 MOLECULE KIND INFORMATION


 All atoms are their own molecule, skipping detailed information


 TOTAL NUMBERS AND MAXIMUM NUMBERS

  Total number of            - Atomic kinds:                                   2
                             - Atoms:                                          2
                             - Shell sets:                                     2
                             - Shells:                                        10
                             - Primitive Cartesian functions:                 12
                             - Cartesian basis functions:                     28
                             - Spherical basis functions:                     26

  Maximum angular momentum of- Orbital basis functions:                        2
                             - Local part of the GTH pseudopotential:          2
                             - Non-local part of the GTH pseudopotential:      0


 MODULE QUICKSTEP: ATOMIC COORDINATES IN ANGSTROM

   Atom Kind Element         X             Y             Z       Z(eff)     Mass
      1    1 C     6      4.358500      5.000000      5.000000   4.0000  12.0107
      2    2 O     8      5.641500      5.000000      5.000000   6.0000  15.9994



 SCF PARAMETERS         Density guess:                                   RESTART
                        --------------------------------------------------------
                        max_scf:                                             200
                        max_scf_history:                                       0
                        max_diis:                                              4
                        --------------------------------------------------------
                        eps_scf:                                        1.00E-09
                        eps_scf_history:                                0.00E+00
                        eps_diis:                                       1.00E-01
                        eps_eigval:                                     1.00E-05
                        --------------------------------------------------------
                        level_shift [a.u.]:                             0.000000
                        added MOs                                        21    0
                        --------------------------------------------------------
                        Mixing method:                              PULAY_MIXING
                                                charge density mixing in g-space
                        --------------------------------------------------------
                        No outer SCF

 PW_GRID| Information for grid number                                          1
 PW_GRID| Grid distributed over                                     4 processors
 PW_GRID| Real space group dimensions                                     4    1
 PW_GRID| the grid is blocked:                                                NO
 PW_GRID| Cutoff [a.u.]                                                    200.0
 PW_GRID| spherical cutoff:                                                   NO
 PW_GRID|   Bounds   1            -62      62                Points:         125
 PW_GRID|   Bounds   2            -62      62                Points:         125
 PW_GRID|   Bounds   3            -62      62                Points:         125
 PW_GRID| Volume element (a.u.^3)  0.3455E-02     Volume (a.u.^3)      6748.3346
 PW_GRID| Grid span                                                    FULLSPACE
 PW_GRID|   Distribution                         Average         Max         Min
 PW_GRID|   G-Vectors                           488281.2      488375      488250
 PW_GRID|   G-Rays                                3906.2        3907        3906
 PW_GRID|   Real Space Points                   488281.2      500000      484375

 PW_GRID| Information for grid number                                          2
 PW_GRID| Number of the reference grid                                         1
 PW_GRID| Grid distributed over                                     4 processors
 PW_GRID| Real space group dimensions                                     4    1
 PW_GRID| the grid is blocked:                                                NO
 PW_GRID| Cutoff [a.u.]                                                     66.7
 PW_GRID| spherical cutoff:                                                   NO
 PW_GRID|   Bounds   1            -36      35                Points:          72
 PW_GRID|   Bounds   2            -36      35                Points:          72
 PW_GRID|   Bounds   3            -36      35                Points:          72
 PW_GRID| Volume element (a.u.^3)  0.1808E-01     Volume (a.u.^3)      6748.3346
 PW_GRID| Grid span                                                    FULLSPACE
 PW_GRID|   Distribution                         Average         Max         Min
 PW_GRID|   G-Vectors                            93312.0       93384       93240
 PW_GRID|   G-Rays                                1296.0        1297        1295
 PW_GRID|   Real Space Points                    93312.0       93312       93312

 PW_GRID| Information for grid number                                          3
 PW_GRID| Number of the reference grid                                         1
 PW_GRID| Grid distributed over                                     4 processors
 PW_GRID| Real space group dimensions                                     4    1
 PW_GRID| the grid is blocked:                                                NO
 PW_GRID| Cutoff [a.u.]                                                     22.2
 PW_GRID| spherical cutoff:                                                   NO
 PW_GRID|   Bounds   1            -22      22                Points:          45
 PW_GRID|   Bounds   2            -22      22                Points:          45
 PW_GRID|   Bounds   3            -22      22                Points:          45
 PW_GRID| Volume element (a.u.^3)  0.7406E-01     Volume (a.u.^3)      6748.3346
 PW_GRID| Grid span                                                    FULLSPACE
 PW_GRID|   Distribution                         Average         Max         Min
 PW_GRID|   G-Vectors                            22781.2       22905       22680
 PW_GRID|   G-Rays                                 506.2         509         504
 PW_GRID|   Real Space Points                    22781.2       24300       22275

 PW_GRID| Information for grid number                                          4
 PW_GRID| Number of the reference grid                                         1
 PW_GRID| Grid distributed over                                     4 processors
 PW_GRID| Real space group dimensions                                     4    1
 PW_GRID| the grid is blocked:                                                NO
 PW_GRID| Cutoff [a.u.]                                                      7.4
 PW_GRID| spherical cutoff:                                                   NO
 PW_GRID|   Bounds   1            -12      11                Points:          24
 PW_GRID|   Bounds   2            -12      11                Points:          24
 PW_GRID|   Bounds   3            -12      11                Points:          24
 PW_GRID| Volume element (a.u.^3)  0.4882         Volume (a.u.^3)      6748.3346
 PW_GRID| Grid span                                                    FULLSPACE
 PW_GRID|   Distribution                         Average         Max         Min
 PW_GRID|   G-Vectors                             3456.0        3480        3432
 PW_GRID|   G-Rays                                 144.0         145         143
 PW_GRID|   Real Space Points                     3456.0        3456        3456

 POISSON| Solver                                                         WAVELET
 POISSON| Wavelet| Scaling function                                           40
 POISSON| Periodicity                                                       NONE

 RS_GRID| Information for grid number                                          1
 RS_GRID|   Bounds   1            -62      62                Points:         125
 RS_GRID|   Bounds   2            -62      62                Points:         125
 RS_GRID|   Bounds   3            -62      62                Points:         125
 RS_GRID| Real space fully replicated
 RS_GRID| Group size                                                           1

 RS_GRID| Information for grid number                                          2
 RS_GRID|   Bounds   1            -36      35                Points:          72
 RS_GRID|   Bounds   2            -36      35                Points:          72
 RS_GRID|   Bounds   3            -36      35                Points:          72
 RS_GRID| Real space fully replicated
 RS_GRID| Group size                                                           1

 RS_GRID| Information for grid number                                          3
 RS_GRID|   Bounds   1            -22      22                Points:          45
 RS_GRID|   Bounds   2            -22      22                Points:          45
 RS_GRID|   Bounds   3            -22      22                Points:          45
 RS_GRID| Real space fully replicated
 RS_GRID| Group size                                                           1

 RS_GRID| Information for grid number                                          4
 RS_GRID|   Bounds   1            -12      11                Points:          24
 RS_GRID|   Bounds   2            -12      11                Points:          24
 RS_GRID|   Bounds   3            -12      11                Points:          24
 RS_GRID| Real space fully replicated
 RS_GRID| Group size                                                           1

 Number of electrons:                                                         10
 Number of occupied orbitals:                                                  5
 Number of molecular orbitals:                                                26

 Number of orbital functions:                                                 26
 Number of independent orbital functions:                                     26

 Extrapolation method: initial_guess


 SCF WAVEFUNCTION OPTIMIZATION

  Step     Update method      Time    Convergence         Total energy    Change
  ------------------------------------------------------------------------------
     1 NoMix/Diag. 0.40E+00    1.2     1.7693E-09       -21.6279786238 -2.16E+01
     2 Pulay/Diag. 0.40E+00    1.1     2.4728E-09       -21.6279786268 -2.97E-09
     3 Pulay/Diag. 0.40E+00    1.1     1.7125E-09       -21.6279786216  5.26E-09
     4 Pulay/Diag. 0.40E+00    1.1     1.1387E-09       -21.6279786253 -3.74E-09
     5 Pulay/Diag. 0.40E+00    1.1     7.9276E-10       -21.6279786228  2.48E-09

  *** SCF run converged in     5 steps ***


  Electronic density on regular grids:        -10.0000000008       -0.0000000008
  Core density on regular grids:                9.9999999995       -0.0000000005
  Total charge density on r-space grids:       -0.0000000013
  Total charge density g-space grids:          -0.0000000013

  Overlap energy of the core charge distribution:               0.00000006326961
  Self energy of the core charge distribution:                -54.86121500576408
  Core Hamiltonian energy:                                     15.08850686031429
  Hartree energy:                                              23.10575822782262
  Exchange-correlation energy:                                 -4.95107497007066

  Total energy:                                               -21.62797862281374

 !-----------------------------------------------------------------------------!
                     Mulliken Population Analysis

 #  Atom  Element  Kind  Atomic population                           Net charge
       1     C        1          3.699994                              0.300006
       2     O        2          6.300006                             -0.300006
 # Total charge                             10.000000                 -0.000000

 !-----------------------------------------------------------------------------!

 !-----------------------------------------------------------------------------!
                           Hirshfeld Charges

  #Atom  Element  Kind  Ref Charge     Population                    Net charge
      1       C      1       4.000          3.759                         0.241
      2       O      2       6.000          6.239                        -0.239

  Total Charge                                                            0.003
 !-----------------------------------------------------------------------------!
  
 -------------------------------------------------------------------------------
 -                                                                             -
 -                          BANDSTRUCTURE CALCULATION                          -
 -                                                                             -
 -------------------------------------------------------------------------------
  
 Number of occupied molecular orbitals (MOs) = Number of occupied bands        5
 Number of unoccupied (= virtual) MOs = Number of unoccupied bands            21
 Number of Gaussian basis functions for MOs                                   26
 K-point mesh for the density of states (DOS) and the self-energy      1   1   1
  
 -------------------------------------------------------------------------------
 -                                                                             -
 -                              GW CALCULATION                                 -
 -                                                                             -
 -------------------------------------------------------------------------------
  
 Input: Number of time/freq. points                                           30
 Input: Filter threshold for sparse tensor operations                    1.0E-08
 Apply Hedin shift                                                             F
  
 Number of auxiliary Gaussian basis functions for χ, ε, W                    145
 Cutoff radius for the truncated Coulomb operator in Σ^x:               2645.9 Å
 Cutoff radius for the truncated Coulomb operator in RI metric:            3.0 Å
 Regularization parameter of RI                                          0.0E+00
 Lattice sum size for V(k):                                                    3
  
 K-point mesh 1 for χ, ε, W                                            1   1   1
 K-point mesh 2 for χ, ε, W (for k-point extrapolation of W)           1   1   1
 Approximate the k-point extrapolation                                         F
 Group size for tensor operations                                              4
 The requested group size is > 1 which can lead to bad performance.
 Using more memory per MPI process might improve performance.
 (Also increase MEMORY_PER_PROC when using more memory per process.)
 
 Computed 3-center integrals (µν|P), execution time                        0.2 s
 Percentage of non-zero (µν|P)                                         100.000 %
 Max. distance between µ,ν in non-zero (µν|P)                              1.3 A
 Required memory if storing all 3-center integrals (µν|P)                   0 GB
 
 Number of i and j atoms in M_λνP(τ), N_νλQ(τ):                               36
 Number of inner loop atoms for µ in M_λνP = sum_µ (µν|P) G_µλ                 2
 
 SCF direct band gap (eV)                                                   5.86
 Max. SCF eigval diff. (eV)                                               203.50
 E-Range for minimax grid                                                  34.73
 Number of Padé parameters for analytic continuation:                         16
 
 Read χ(iτ,k=0) from file for time point      1 / 30,    Execution time    0.0 s
 Read χ(iτ,k=0) from file for time point      2 / 30,    Execution time    0.0 s
 Read χ(iτ,k=0) from file for time point      3 / 30,    Execution time    0.0 s
 Read χ(iτ,k=0) from file for time point      4 / 30,    Execution time    0.0 s
 Read χ(iτ,k=0) from file for time point      5 / 30,    Execution time    0.0 s
 Read χ(iτ,k=0) from file for time point      6 / 30,    Execution time    0.0 s
 Read χ(iτ,k=0) from file for time point      7 / 30,    Execution time    0.0 s
 Read χ(iτ,k=0) from file for time point      8 / 30,    Execution time    0.0 s
 Read χ(iτ,k=0) from file for time point      9 / 30,    Execution time    0.0 s
 Read χ(iτ,k=0) from file for time point     10 / 30,    Execution time    0.0 s
 Read χ(iτ,k=0) from file for time point     11 / 30,    Execution time    0.0 s
 Read χ(iτ,k=0) from file for time point     12 / 30,    Execution time    0.0 s
 Read χ(iτ,k=0) from file for time point     13 / 30,    Execution time    0.0 s
 Read χ(iτ,k=0) from file for time point     14 / 30,    Execution time    0.0 s
 Read χ(iτ,k=0) from file for time point     15 / 30,    Execution time    0.0 s
 Read χ(iτ,k=0) from file for time point     16 / 30,    Execution time    0.0 s
 Read χ(iτ,k=0) from file for time point     17 / 30,    Execution time    0.0 s
 Read χ(iτ,k=0) from file for time point     18 / 30,    Execution time    0.0 s
 Read χ(iτ,k=0) from file for time point     19 / 30,    Execution time    0.0 s
 Read χ(iτ,k=0) from file for time point     20 / 30,    Execution time    0.0 s
 Read χ(iτ,k=0) from file for time point     21 / 30,    Execution time    0.0 s
 Read χ(iτ,k=0) from file for time point     22 / 30,    Execution time    0.0 s
 Read χ(iτ,k=0) from file for time point     23 / 30,    Execution time    0.0 s
 Read χ(iτ,k=0) from file for time point     24 / 30,    Execution time    0.0 s
 Read χ(iτ,k=0) from file for time point     25 / 30,    Execution time    0.0 s
 Read χ(iτ,k=0) from file for time point     26 / 30,    Execution time    0.0 s
 Read χ(iτ,k=0) from file for time point     27 / 30,    Execution time    0.0 s
 Read χ(iτ,k=0) from file for time point     28 / 30,    Execution time    0.0 s
 Read χ(iτ,k=0) from file for time point     29 / 30,    Execution time    0.0 s
 Read χ(iτ,k=0) from file for time point     30 / 30,    Execution time    0.0 s
 
 Computed W(iτ,k) for k-point batch           1 /  1,    Execution time    0.2 s
 Computed W(f=0,k) for k-point batch          1 /  1,    Execution time    0.0 s
 
 Read Σ^c(iτ,k=0) from file for time point    1 / 30,    Execution time    0.0 s
 Read Σ^c(iτ,k=0) from file for time point    2 / 30,    Execution time    0.0 s
 Read Σ^c(iτ,k=0) from file for time point    3 / 30,    Execution time    0.0 s
 Read Σ^c(iτ,k=0) from file for time point    4 / 30,    Execution time    0.0 s
 Read Σ^c(iτ,k=0) from file for time point    5 / 30,    Execution time    0.0 s
 Read Σ^c(iτ,k=0) from file for time point    6 / 30,    Execution time    0.0 s
 Read Σ^c(iτ,k=0) from file for time point    7 / 30,    Execution time    0.0 s
 Read Σ^c(iτ,k=0) from file for time point    8 / 30,    Execution time    0.0 s
 Read Σ^c(iτ,k=0) from file for time point    9 / 30,    Execution time    0.0 s
 Read Σ^c(iτ,k=0) from file for time point   10 / 30,    Execution time    0.0 s
 Read Σ^c(iτ,k=0) from file for time point   11 / 30,    Execution time    0.0 s
 Read Σ^c(iτ,k=0) from file for time point   12 / 30,    Execution time    0.0 s
 Read Σ^c(iτ,k=0) from file for time point   13 / 30,    Execution time    0.0 s
 Read Σ^c(iτ,k=0) from file for time point   14 / 30,    Execution time    0.0 s
 Read Σ^c(iτ,k=0) from file for time point   15 / 30,    Execution time    0.0 s
 Read Σ^c(iτ,k=0) from file for time point   16 / 30,    Execution time    0.0 s
 Read Σ^c(iτ,k=0) from file for time point   17 / 30,    Execution time    0.0 s
 Read Σ^c(iτ,k=0) from file for time point   18 / 30,    Execution time    0.0 s
 Read Σ^c(iτ,k=0) from file for time point   19 / 30,    Execution time    0.0 s
 Read Σ^c(iτ,k=0) from file for time point   20 / 30,    Execution time    0.0 s
 Read Σ^c(iτ,k=0) from file for time point   21 / 30,    Execution time    0.0 s
 Read Σ^c(iτ,k=0) from file for time point   22 / 30,    Execution time    0.0 s
 Read Σ^c(iτ,k=0) from file for time point   23 / 30,    Execution time    0.0 s
 Read Σ^c(iτ,k=0) from file for time point   24 / 30,    Execution time    0.0 s
 Read Σ^c(iτ,k=0) from file for time point   25 / 30,    Execution time    0.0 s
 Read Σ^c(iτ,k=0) from file for time point   26 / 30,    Execution time    0.0 s
 Read Σ^c(iτ,k=0) from file for time point   27 / 30,    Execution time    0.0 s
 Read Σ^c(iτ,k=0) from file for time point   28 / 30,    Execution time    0.0 s
 Read Σ^c(iτ,k=0) from file for time point   29 / 30,    Execution time    0.0 s
 Read Σ^c(iτ,k=0) from file for time point   30 / 30,    Execution time    0.0 s
 
 Sparsity of Σ^c(iτ,k=0): Percentage of skipped atom pairs:                0.0 %
 Retaining nl_3c for RTBSE

 
 SCF valence band maximum (eV):                                           -9.186
 SCF conduction band minimum (eV):                                        -3.326
 SCF indirect band gap (eV):                                               5.860
 SCF direct band gap (eV):                                                 5.860
 
 G0W0 valence band maximum (eV):                                         -12.829
 G0W0 conduction band minimum (eV):                                        2.198
 G0W0 indirect band gap (eV):                                             15.026
 G0W0 direct band gap (eV):                                               15.026
 
 Hartree-Fock with SCF orbitals valence band maximum (eV):               -14.562
 Hartree-Fock with SCF orbitals conduction band minimum (eV)               3.044
 Hartree-Fock with SCF orbitals indirect band gap (eV):                   17.606
 Hartree-Fock with SCF orbitals direct band gap (eV):                     17.606

 ENERGY| Total FORCE_EVAL ( QS ) energy [hartree]            -21.627978622813739
 RTBSE| Approximate size of the 3c integrals                       0.75E+000 MiB
 
 /-----------------------------------------------------------------------------\
 |                                                                             |
 |                    Real Time Bethe-Salpeter Propagation                     |
 |                                                                             |
 \-----------------------------------------------------------------------------/
 
 Exponential method                                                          BCH
 Reference Hamiltonian                                                      G0W0
 Apply delta pulse                                                             F


 *** WARNING in emd/rt_bse_io.F:482 :: Restart required but no info file ***
 *** found - starting from sim_step given in input                       ***


 *** WARNING in emd/rt_bse_io.F:508 :: Restart without some restart ***
 *** matrices - starting from SCF density.                          ***


 *** WARNING in emd/rt_bse_io.F:561 :: Restart without previous moments - ***
 *** unknown moments trace set to zero.                                   ***


 *** WARNING in emd/rt_bse_io.F:328 :: Restart without RT field file - ***
 *** unknown field trace set to zero.                                  ***

 RTBSE| Simulation step         Convergence     Electron number  ETRS Iterations
 RTBSE|               0     0.18558084E-007     0.10000000E+002                4
 RTBSE| Simulation step         Convergence     Electron number  ETRS Iterations
 RTBSE|               1     0.19884377E-007     0.10000000E+002                4
 RTBSE| Simulation step         Convergence     Electron number  ETRS Iterations
 RTBSE|               2     0.20779475E-007     0.10000000E+002                4
 RTBSE| Simulation step         Convergence     Electron number  ETRS Iterations
 RTBSE|               3     0.21610804E-007     0.10000000E+002                4
 RTBSE| Simulation step         Convergence     Electron number  ETRS Iterations
 RTBSE|               4     0.20368390E-007     0.10000000E+002                4
 RTBSE| Simulation step         Convergence     Electron number  ETRS Iterations
 RTBSE|               5     0.92979822E-007     0.10000000E+002                3
 RTBSE| Simulation step         Convergence     Electron number  ETRS Iterations
 RTBSE|               6     0.85683871E-007     0.10000000E+002                3
 RTBSE| Simulation step         Convergence     Electron number  ETRS Iterations
 RTBSE|               7     0.81955935E-007     0.10000000E+002                3
 RTBSE| Simulation step         Convergence     Electron number  ETRS Iterations
 RTBSE|               8     0.73615825E-007     0.10000000E+002                3
 RTBSE| Simulation step         Convergence     Electron number  ETRS Iterations
 RTBSE|               9     0.57473642E-007     0.10000000E+002                3
 RTBSE| Simulation step         Convergence     Electron number  ETRS Iterations
 RTBSE|              10     0.65777556E-007     0.10000000E+002                3
 RTBSE| Simulation step         Convergence     Electron number  ETRS Iterations
 RTBSE|              11     0.86292360E-007     0.10000000E+002                3
 RTBSE| Simulation step         Convergence     Electron number  ETRS Iterations
 RTBSE|              12     0.96998087E-007     0.10000000E+002                3
 RTBSE| Simulation step         Convergence     Electron number  ETRS Iterations
 RTBSE|              13     0.15728027E-007     0.10000000E+002                4
 RTBSE| Simulation step         Convergence     Electron number  ETRS Iterations
 RTBSE|              14     0.17978367E-007     0.10000000E+002                4
 RTBSE| Simulation step         Convergence     Electron number  ETRS Iterations
 RTBSE|              15     0.19559018E-007     0.10000000E+002                4
 RTBSE| Simulation step         Convergence     Electron number  ETRS Iterations
 RTBSE|              16     0.19339394E-007     0.10000000E+002                4
 RTBSE| Simulation step         Convergence     Electron number  ETRS Iterations
 RTBSE|              17     0.17888908E-007     0.10000000E+002                4
 RTBSE| Simulation step         Convergence     Electron number  ETRS Iterations
 RTBSE|              18     0.17049734E-007     0.10000000E+002                4
 RTBSE| Simulation step         Convergence     Electron number  ETRS Iterations
 RTBSE|              19     0.17498256E-007     0.10000000E+002                4
 RTBSE| Simulation step         Convergence     Electron number  ETRS Iterations
 RTBSE|              20     0.18264219E-007     0.10000000E+002                4
 RTBSE| Simulation step         Convergence     Electron number  ETRS Iterations
 RTBSE|              21     0.18489074E-007     0.10000000E+002                4
 RTBSE| Simulation step         Convergence     Electron number  ETRS Iterations
 RTBSE|              22     0.18794996E-007     0.10000000E+002                4
 RTBSE| Simulation step         Convergence     Electron number  ETRS Iterations
 RTBSE|              23     0.18111726E-007     0.10000000E+002                4
 RTBSE| Simulation step         Convergence     Electron number  ETRS Iterations
 RTBSE|              24     0.18317111E-007     0.10000000E+002                4
 RTBSE| Simulation step         Convergence     Electron number  ETRS Iterations
 RTBSE|              25     0.18302794E-007     0.10000000E+002                4
 RTBSE| Simulation step         Convergence     Electron number  ETRS Iterations
 RTBSE|              26     0.17644054E-007     0.10000000E+002                4
 RTBSE| Simulation step         Convergence     Electron number  ETRS Iterations
 RTBSE|              27     0.98774464E-007     0.10000000E+002                3
 RTBSE| Simulation step         Convergence     Electron number  ETRS Iterations
 RTBSE|              28     0.88332142E-007     0.10000000E+002                3
 RTBSE| Simulation step         Convergence     Electron number  ETRS Iterations
 RTBSE|              29     0.79499060E-007     0.10000000E+002                3
 RTBSE| Simulation step         Convergence     Electron number  ETRS Iterations
 RTBSE|              30     0.72577533E-007     0.10000000E+002                3
 RTBSE| Simulation step         Convergence     Electron number  ETRS Iterations
 RTBSE|              31     0.84478769E-007     0.10000000E+002                3
 RTBSE| Simulation step         Convergence     Electron number  ETRS Iterations
 RTBSE|              32     0.16600059E-007     0.10000000E+002                4
 RTBSE| Simulation step         Convergence     Electron number  ETRS Iterations
 RTBSE|              33     0.19971182E-007     0.10000000E+002                4
 RTBSE| Simulation step         Convergence     Electron number  ETRS Iterations
 RTBSE|              34     0.23549333E-007     0.10000000E+002                4
 RTBSE| Simulation step         Convergence     Electron number  ETRS Iterations
 RTBSE|              35     0.27960895E-007     0.10000000E+002                4
 RTBSE| Simulation step         Convergence     Electron number  ETRS Iterations
 RTBSE|              36     0.32499239E-007     0.10000000E+002                4
 RTBSE| Simulation step         Convergence     Electron number  ETRS Iterations
 RTBSE|              37     0.36610077E-007     0.10000000E+002                4
 RTBSE| Simulation step         Convergence     Electron number  ETRS Iterations
 RTBSE|              38     0.39760208E-007     0.10000000E+002                4
 RTBSE| Simulation step         Convergence     Electron number  ETRS Iterations
 RTBSE|              39     0.41758392E-007     0.10000000E+002                4
 RTBSE| Simulation step         Convergence     Electron number  ETRS Iterations
 RTBSE|              40     0.43307944E-007     0.10000000E+002                4
 RTBSE| Simulation step         Convergence     Electron number  ETRS Iterations
 RTBSE|              41     0.44047760E-007     0.10000000E+002                4
 RTBSE| Simulation step         Convergence     Electron number  ETRS Iterations
 RTBSE|              42     0.43414684E-007     0.10000000E+002                4
 RTBSE| Simulation step         Convergence     Electron number  ETRS Iterations
 RTBSE|              43     0.40980932E-007     0.10000000E+002                4
 RTBSE| Simulation step         Convergence     Electron number  ETRS Iterations
 RTBSE|              44     0.39689868E-007     0.10000000E+002                4
 RTBSE| Simulation step         Convergence     Electron number  ETRS Iterations
 RTBSE|              45     0.37975026E-007     0.10000000E+002                4
 RTBSE| Simulation step         Convergence     Electron number  ETRS Iterations
 RTBSE|              46     0.36234134E-007     0.10000000E+002                4
 RTBSE| Simulation step         Convergence     Electron number  ETRS Iterations
 RTBSE|              47     0.34662229E-007     0.10000000E+002                4
 RTBSE| Simulation step         Convergence     Electron number  ETRS Iterations
 RTBSE|              48     0.32492633E-007     0.10000000E+002                4
 RTBSE| Simulation step         Convergence     Electron number  ETRS Iterations
 RTBSE|              49     0.28973249E-007     0.10000000E+002                4
 RTBSE| Simulation step         Convergence     Electron number  ETRS Iterations
 RTBSE|              50     0.24652839E-007     0.10000000E+002                4
 RTBSE| Simulation step         Convergence     Electron number  ETRS Iterations
 RTBSE|              51     0.19900021E-007     0.10000000E+002                4
 RTBSE| Simulation step         Convergence     Electron number  ETRS Iterations
 RTBSE|              52     0.15602676E-007     0.10000000E+002                4
 RTBSE| Simulation step         Convergence     Electron number  ETRS Iterations
 RTBSE|              53     0.17692775E-007     0.10000000E+002                4
 RTBSE| Simulation step         Convergence     Electron number  ETRS Iterations
 RTBSE|              54     0.23109103E-007     0.10000000E+002                4
 RTBSE| Simulation step         Convergence     Electron number  ETRS Iterations
 RTBSE|              55     0.29126016E-007     0.10000000E+002                4
 RTBSE| Simulation step         Convergence     Electron number  ETRS Iterations
 RTBSE|              56     0.35713421E-007     0.10000000E+002                4
 RTBSE| Simulation step         Convergence     Electron number  ETRS Iterations
 RTBSE|              57     0.42277296E-007     0.10000000E+002                4
 RTBSE| Simulation step         Convergence     Electron number  ETRS Iterations
 RTBSE|              58     0.48582561E-007     0.10000000E+002                4
 RTBSE| Simulation step         Convergence     Electron number  ETRS Iterations
 RTBSE|              59     0.54128612E-007     0.10000000E+002                4
 RTBSE| Simulation step         Convergence     Electron number  ETRS Iterations
 RTBSE|              60     0.58931516E-007     0.10000000E+002                4
 RTBSE| Simulation step         Convergence     Electron number  ETRS Iterations
 RTBSE|              61     0.63401367E-007     0.10000000E+002                4
 RTBSE| Simulation step         Convergence     Electron number  ETRS Iterations
 RTBSE|              62     0.67066375E-007     0.10000000E+002                4
 RTBSE| Simulation step         Convergence     Electron number  ETRS Iterations
 RTBSE|              63     0.69149342E-007     0.10000000E+002                4
 RTBSE| Simulation step         Convergence     Electron number  ETRS Iterations
 RTBSE|              64     0.68831281E-007     0.10000000E+002                4
 RTBSE| Simulation step         Convergence     Electron number  ETRS Iterations
 RTBSE|              65     0.66392090E-007     0.10000000E+002                4
 RTBSE| Simulation step         Convergence     Electron number  ETRS Iterations
 RTBSE|              66     0.63301208E-007     0.10000000E+002                4
 RTBSE| Simulation step         Convergence     Electron number  ETRS Iterations
 RTBSE|              67     0.60438604E-007     0.10000000E+002                4
 RTBSE| Simulation step         Convergence     Electron number  ETRS Iterations
 RTBSE|              68     0.57469697E-007     0.10000000E+002                4
 RTBSE| Simulation step         Convergence     Electron number  ETRS Iterations
 RTBSE|              69     0.57957208E-007     0.10000000E+002                4
 RTBSE| Simulation step         Convergence     Electron number  ETRS Iterations
 RTBSE|              70     0.56503001E-007     0.10000000E+002                4
 RTBSE| Simulation step         Convergence     Electron number  ETRS Iterations
 RTBSE|              71     0.53630283E-007     0.10000000E+002                4
 RTBSE| Simulation step         Convergence     Electron number  ETRS Iterations
 RTBSE|              72     0.50928138E-007     0.10000000E+002                4
 RTBSE| Simulation step         Convergence     Electron number  ETRS Iterations
 RTBSE|              73     0.48624034E-007     0.10000000E+002                4
 RTBSE| Simulation step         Convergence     Electron number  ETRS Iterations
 RTBSE|              74     0.45185520E-007     0.10000000E+002                4
 RTBSE| Simulation step         Convergence     Electron number  ETRS Iterations
 RTBSE|              75     0.39788375E-007     0.10000000E+002                4
 RTBSE| Simulation step         Convergence     Electron number  ETRS Iterations
 RTBSE|              76     0.32467700E-007     0.10000000E+002                4
 RTBSE| Simulation step         Convergence     Electron number  ETRS Iterations
 RTBSE|              77     0.24796754E-007     0.10000000E+002                4
 RTBSE| Simulation step         Convergence     Electron number  ETRS Iterations
 RTBSE|              78     0.28807179E-007     0.10000000E+002                4
 RTBSE| Simulation step         Convergence     Electron number  ETRS Iterations
 RTBSE|              79     0.37497391E-007     0.10000000E+002                4
 RTBSE| Simulation step         Convergence     Electron number  ETRS Iterations
 RTBSE|              80     0.46579299E-007     0.10000000E+002                4
 RTBSE| Simulation step         Convergence     Electron number  ETRS Iterations
 RTBSE|              81     0.55757357E-007     0.10000000E+002                4
 RTBSE| Simulation step         Convergence     Electron number  ETRS Iterations
 RTBSE|              82     0.64250179E-007     0.10000000E+002                4
 RTBSE| Simulation step         Convergence     Electron number  ETRS Iterations
 RTBSE|              83     0.72292261E-007     0.10000000E+002                4
 RTBSE| Simulation step         Convergence     Electron number  ETRS Iterations
 RTBSE|              84     0.80161633E-007     0.10000000E+002                4
 RTBSE| Simulation step         Convergence     Electron number  ETRS Iterations
 RTBSE|              85     0.86810260E-007     0.10000000E+002                4
 RTBSE| Simulation step         Convergence     Electron number  ETRS Iterations
 RTBSE|              86     0.91785192E-007     0.10000000E+002                4
 RTBSE| Simulation step         Convergence     Electron number  ETRS Iterations
 RTBSE|              87     0.94649637E-007     0.10000000E+002                4
 RTBSE| Simulation step         Convergence     Electron number  ETRS Iterations
 RTBSE|              88     0.96014162E-007     0.10000000E+002                4
 RTBSE| Simulation step         Convergence     Electron number  ETRS Iterations
 RTBSE|              89     0.97230859E-007     0.10000000E+002                4
 RTBSE| Simulation step         Convergence     Electron number  ETRS Iterations
 RTBSE|              90     0.97276814E-007     0.10000000E+002                4
 RTBSE| Simulation step         Convergence     Electron number  ETRS Iterations
 RTBSE|              91     0.95680851E-007     0.10000000E+002                4
 RTBSE| Simulation step         Convergence     Electron number  ETRS Iterations
 RTBSE|              92     0.92310433E-007     0.10000000E+002                4
 RTBSE| Simulation step         Convergence     Electron number  ETRS Iterations
 RTBSE|              93     0.88051205E-007     0.10000000E+002                4
 RTBSE| Simulation step         Convergence     Electron number  ETRS Iterations
 RTBSE|              94     0.84729340E-007     0.10000000E+002                4
 RTBSE| Simulation step         Convergence     Electron number  ETRS Iterations
 RTBSE|              95     0.85116908E-007     0.10000000E+002                4
 RTBSE| Simulation step         Convergence     Electron number  ETRS Iterations
 RTBSE|              96     0.87682537E-007     0.10000000E+002                4
 RTBSE| Simulation step         Convergence     Electron number  ETRS Iterations
 RTBSE|              97     0.87950025E-007     0.10000000E+002                4
 RTBSE| Simulation step         Convergence     Electron number  ETRS Iterations
 RTBSE|              98     0.85113920E-007     0.10000000E+002                4
 RTBSE| Simulation step         Convergence     Electron number  ETRS Iterations
 RTBSE|              99     0.81637183E-007     0.10000000E+002                4
 RTBSE| Simulation step         Convergence     Electron number  ETRS Iterations
 RTBSE|             100     0.78803881E-007     0.10000000E+002                4
 RTBSE| Simulation step         Convergence     Electron number  ETRS Iterations
 RTBSE|             101     0.75042990E-007     0.10000000E+002                4
 RTBSE| Simulation step         Convergence     Electron number  ETRS Iterations
 RTBSE|             102     0.68529684E-007     0.10000000E+002                4
 RTBSE| Simulation step         Convergence     Electron number  ETRS Iterations
 RTBSE|             103     0.58354458E-007     0.10000000E+002                4
 RTBSE| Simulation step         Convergence     Electron number  ETRS Iterations
 RTBSE|             104     0.45935187E-007     0.10000000E+002                4
 RTBSE| Simulation step         Convergence     Electron number  ETRS Iterations
 RTBSE|             105     0.50360507E-007     0.10000000E+002                4
 RTBSE| Simulation step         Convergence     Electron number  ETRS Iterations
 RTBSE|             106     0.65704867E-007     0.10000000E+002                4
 RTBSE| Simulation step         Convergence     Electron number  ETRS Iterations
 RTBSE|             107     0.82453473E-007     0.10000000E+002                4
 RTBSE| Simulation step         Convergence     Electron number  ETRS Iterations
 RTBSE|             108     0.99700725E-007     0.10000000E+002                4
 RTBSE| Simulation step         Convergence     Electron number  ETRS Iterations
 RTBSE|             109     0.18584875E-007     0.10000000E+002                5
 RTBSE| Simulation step         Convergence     Electron number  ETRS Iterations
 RTBSE|             110     0.21565206E-007     0.10000000E+002                5
 RTBSE| Simulation step         Convergence     Electron number  ETRS Iterations
 RTBSE|             111     0.24177757E-007     0.10000000E+002                5
 RTBSE| Simulation step         Convergence     Electron number  ETRS Iterations
 RTBSE|             112     0.26461891E-007     0.10000000E+002                5
 RTBSE| Simulation step         Convergence     Electron number  ETRS Iterations
 RTBSE|             113     0.28289308E-007     0.10000000E+002                5
 RTBSE| Simulation step         Convergence     Electron number  ETRS Iterations
 RTBSE|             114     0.29719416E-007     0.10000000E+002                5
 RTBSE| Simulation step         Convergence     Electron number  ETRS Iterations
 RTBSE|             115     0.30731377E-007     0.10000000E+002                5
 RTBSE| Simulation step         Convergence     Electron number  ETRS Iterations
 RTBSE|             116     0.31412999E-007     0.10000000E+002                5
 RTBSE| Simulation step         Convergence     Electron number  ETRS Iterations
 RTBSE|             117     0.31820415E-007     0.10000000E+002                5
 RTBSE| Simulation step         Convergence     Electron number  ETRS Iterations
 RTBSE|             118     0.31682004E-007     0.10000000E+002                5
 RTBSE| Simulation step         Convergence     Electron number  ETRS Iterations
 RTBSE|             119     0.30970228E-007     0.10000000E+002                5
 RTBSE| Simulation step         Convergence     Electron number  ETRS Iterations
 RTBSE|             120     0.29699095E-007     0.10000000E+002                5
 RTBSE| Simulation step         Convergence     Electron number  ETRS Iterations
 RTBSE|             121     0.28022531E-007     0.10000000E+002                5
 RTBSE| Simulation step         Convergence     Electron number  ETRS Iterations
 RTBSE|             122     0.26085252E-007     0.10000000E+002                5
 RTBSE| Simulation step         Convergence     Electron number  ETRS Iterations
 RTBSE|             123     0.23653692E-007     0.10000000E+002                5
 RTBSE| Simulation step         Convergence     Electron number  ETRS Iterations
 RTBSE|             124     0.20682847E-007     0.10000000E+002                5
 RTBSE| Simulation step         Convergence     Electron number  ETRS Iterations
 RTBSE|             125     0.17318515E-007     0.10000000E+002                5
 RTBSE| Simulation step         Convergence     Electron number  ETRS Iterations
 RTBSE|             126     0.16206481E-007     0.10000000E+002                5
 RTBSE| Simulation step         Convergence     Electron number  ETRS Iterations
 RTBSE|             127     0.15190018E-007     0.10000000E+002                5
 RTBSE| Simulation step         Convergence     Electron number  ETRS Iterations
 RTBSE|             128     0.14295294E-007     0.10000000E+002                5
 RTBSE| Simulation step         Convergence     Electron number  ETRS Iterations
 RTBSE|             129     0.94395624E-007     0.10000000E+002                4
 RTBSE| Simulation step         Convergence     Electron number  ETRS Iterations
 RTBSE|             130     0.76027114E-007     0.10000000E+002                4
 RTBSE| Simulation step         Convergence     Electron number  ETRS Iterations
 RTBSE|             131     0.86010679E-007     0.10000000E+002                4
 RTBSE| Simulation step         Convergence     Electron number  ETRS Iterations
 RTBSE|             132     0.14078592E-007     0.10000000E+002                5
 RTBSE| Simulation step         Convergence     Electron number  ETRS Iterations
 RTBSE|             133     0.19429645E-007     0.10000000E+002                5
 RTBSE| Simulation step         Convergence     Electron number  ETRS Iterations
 RTBSE|             134     0.24746644E-007     0.10000000E+002                5
 RTBSE| Simulation step         Convergence     Electron number  ETRS Iterations
 RTBSE|             135     0.30004950E-007     0.10000000E+002                5
 RTBSE| Simulation step         Convergence     Electron number  ETRS Iterations
 RTBSE|             136     0.35052311E-007     0.10000000E+002                5
 RTBSE| Simulation step         Convergence     Electron number  ETRS Iterations
 RTBSE|             137     0.39699469E-007     0.10000000E+002                5
 RTBSE| Simulation step         Convergence     Electron number  ETRS Iterations
 RTBSE|             138     0.43776737E-007     0.10000000E+002                5
 RTBSE| Simulation step         Convergence     Electron number  ETRS Iterations
 RTBSE|             139     0.47155683E-007     0.10000000E+002                5
 RTBSE| Simulation step         Convergence     Electron number  ETRS Iterations
 RTBSE|             140     0.49837132E-007     0.10000000E+002                5
 RTBSE| Simulation step         Convergence     Electron number  ETRS Iterations
 RTBSE|             141     0.51820449E-007     0.10000000E+002                5
 RTBSE| Simulation step         Convergence     Electron number  ETRS Iterations
 RTBSE|             142     0.53131621E-007     0.10000000E+002                5
 RTBSE| Simulation step         Convergence     Electron number  ETRS Iterations
 RTBSE|             143     0.53696893E-007     0.10000000E+002                5
 RTBSE| Simulation step         Convergence     Electron number  ETRS Iterations
 RTBSE|             144     0.53338156E-007     0.10000000E+002                5
 RTBSE| Simulation step         Convergence     Electron number  ETRS Iterations
 RTBSE|             145     0.52027925E-007     0.10000000E+002                5
 RTBSE| Simulation step         Convergence     Electron number  ETRS Iterations
 RTBSE|             146     0.49734296E-007     0.10000000E+002                5
 RTBSE| Simulation step         Convergence     Electron number  ETRS Iterations
 RTBSE|             147     0.46721216E-007     0.10000000E+002                5
 RTBSE| Simulation step         Convergence     Electron number  ETRS Iterations
 RTBSE|             148     0.43058148E-007     0.10000000E+002                5
 RTBSE| Simulation step         Convergence     Electron number  ETRS Iterations
 RTBSE|             149     0.38647684E-007     0.10000000E+002                5
 RTBSE| Simulation step         Convergence     Electron number  ETRS Iterations
 RTBSE|             150     0.33416310E-007     0.10000000E+002                5
 RTBSE| Simulation step         Convergence     Electron number  ETRS Iterations
 RTBSE|             151     0.29515169E-007     0.10000000E+002                5
 RTBSE| Simulation step         Convergence     Electron number  ETRS Iterations
 RTBSE|             152     0.27390297E-007     0.10000000E+002                5
 RTBSE| Simulation step         Convergence     Electron number  ETRS Iterations
 RTBSE|             153     0.25036929E-007     0.10000000E+002                5
 RTBSE| Simulation step         Convergence     Electron number  ETRS Iterations
 RTBSE|             154     0.23061474E-007     0.10000000E+002                5
 RTBSE| Simulation step         Convergence     Electron number  ETRS Iterations
 RTBSE|             155     0.20833043E-007     0.10000000E+002                5
 RTBSE| Simulation step         Convergence     Electron number  ETRS Iterations
 RTBSE|             156     0.18054281E-007     0.10000000E+002                5
 RTBSE| Simulation step         Convergence     Electron number  ETRS Iterations
 RTBSE|             157     0.21397147E-007     0.10000000E+002                5
 RTBSE| Simulation step         Convergence     Electron number  ETRS Iterations
 RTBSE|             158     0.30487012E-007     0.10000000E+002                5
 RTBSE| Simulation step         Convergence     Electron number  ETRS Iterations
 RTBSE|             159     0.39305268E-007     0.10000000E+002                5
 RTBSE| Simulation step         Convergence     Electron number  ETRS Iterations
 RTBSE|             160     0.47691662E-007     0.10000000E+002                5
 RTBSE| Simulation step         Convergence     Electron number  ETRS Iterations
 RTBSE|             161     0.55589088E-007     0.10000000E+002                5
 RTBSE| Simulation step         Convergence     Electron number  ETRS Iterations
 RTBSE|             162     0.62797788E-007     0.10000000E+002                5
 RTBSE| Simulation step         Convergence     Electron number  ETRS Iterations
 RTBSE|             163     0.69229031E-007     0.10000000E+002                5
 RTBSE| Simulation step         Convergence     Electron number  ETRS Iterations
 RTBSE|             164     0.74835526E-007     0.10000000E+002                5
 RTBSE| Simulation step         Convergence     Electron number  ETRS Iterations
 RTBSE|             165     0.79522096E-007     0.10000000E+002                5
 RTBSE| Simulation step         Convergence     Electron number  ETRS Iterations
 RTBSE|             166     0.83076594E-007     0.10000000E+002                5
 RTBSE| Simulation step         Convergence     Electron number  ETRS Iterations
 RTBSE|             167     0.85315261E-007     0.10000000E+002                5
 RTBSE| Simulation step         Convergence     Electron number  ETRS Iterations
 RTBSE|             168     0.86228115E-007     0.10000000E+002                5
 RTBSE| Simulation step         Convergence     Electron number  ETRS Iterations
 RTBSE|             169     0.85898710E-007     0.10000000E+002                5
 RTBSE| Simulation step         Convergence     Electron number  ETRS Iterations
 RTBSE|             170     0.84372542E-007     0.10000000E+002                5
 RTBSE| Simulation step         Convergence     Electron number  ETRS Iterations
 RTBSE|             171     0.81534768E-007     0.10000000E+002                5
 RTBSE| Simulation step         Convergence     Electron number  ETRS Iterations
 RTBSE|             172     0.77070426E-007     0.10000000E+002                5
 RTBSE| Simulation step         Convergence     Electron number  ETRS Iterations
 RTBSE|             173     0.71127169E-007     0.10000000E+002                5
 RTBSE| Simulation step         Convergence     Electron number  ETRS Iterations
 RTBSE|             174     0.63900743E-007     0.10000000E+002                5
 RTBSE| Simulation step         Convergence     Electron number  ETRS Iterations
 RTBSE|             175     0.55663474E-007     0.10000000E+002                5
 RTBSE| Simulation step         Convergence     Electron number  ETRS Iterations
 RTBSE|             176     0.47136724E-007     0.10000000E+002                5
 RTBSE| Simulation step         Convergence     Electron number  ETRS Iterations
 RTBSE|             177     0.43916216E-007     0.10000000E+002                5
 RTBSE| Simulation step         Convergence     Electron number  ETRS Iterations
 RTBSE|             178     0.39923494E-007     0.10000000E+002                5
 RTBSE| Simulation step         Convergence     Electron number  ETRS Iterations
 RTBSE|             179     0.35724820E-007     0.10000000E+002                5
 RTBSE| Simulation step         Convergence     Electron number  ETRS Iterations
 RTBSE|             180     0.31751873E-007     0.10000000E+002                5
 RTBSE| Simulation step         Convergence     Electron number  ETRS Iterations
 RTBSE|             181     0.27412043E-007     0.10000000E+002                5
 RTBSE| Simulation step         Convergence     Electron number  ETRS Iterations
 RTBSE|             182     0.28206515E-007     0.10000000E+002                5
 RTBSE| Simulation step         Convergence     Electron number  ETRS Iterations
 RTBSE|             183     0.41304965E-007     0.10000000E+002                5
 RTBSE| Simulation step         Convergence     Electron number  ETRS Iterations
 RTBSE|             184     0.53975331E-007     0.10000000E+002                5
 RTBSE| Simulation step         Convergence     Electron number  ETRS Iterations
 RTBSE|             185     0.65805533E-007     0.10000000E+002                5
 RTBSE| Simulation step         Convergence     Electron number  ETRS Iterations
 RTBSE|             186     0.76483978E-007     0.10000000E+002                5
 RTBSE| Simulation step         Convergence     Electron number  ETRS Iterations
 RTBSE|             187     0.86117424E-007     0.10000000E+002                5
 RTBSE| Simulation step         Convergence     Electron number  ETRS Iterations
 RTBSE|             188     0.94732390E-007     0.10000000E+002                5
 RTBSE| Simulation step         Convergence     Electron number  ETRS Iterations
 RTBSE|             189     0.13169873E-007     0.10000000E+002                6
 RTBSE| Simulation step         Convergence     Electron number  ETRS Iterations
 RTBSE|             190     0.13918157E-007     0.10000000E+002                6
 RTBSE| Simulation step         Convergence     Electron number  ETRS Iterations
 RTBSE|             191     0.14439645E-007     0.10000000E+002                6
 RTBSE| Simulation step         Convergence     Electron number  ETRS Iterations
 RTBSE|             192     0.14788043E-007     0.10000000E+002                6
 RTBSE| Simulation step         Convergence     Electron number  ETRS Iterations
 RTBSE|             193     0.14923647E-007     0.10000000E+002                6
 RTBSE| Simulation step         Convergence     Electron number  ETRS Iterations
 RTBSE|             194     0.14836977E-007     0.10000000E+002                6
 RTBSE| Simulation step         Convergence     Electron number  ETRS Iterations
 RTBSE|             195     0.14626588E-007     0.10000000E+002                6
 RTBSE| Simulation step         Convergence     Electron number  ETRS Iterations
 RTBSE|             196     0.14883077E-007     0.10000000E+002                6
 RTBSE| Simulation step         Convergence     Electron number  ETRS Iterations
 RTBSE|             197     0.14937898E-007     0.10000000E+002                6
 RTBSE| Simulation step         Convergence     Electron number  ETRS Iterations
 RTBSE|             198     0.98165794E-007     0.10000000E+002                5
 RTBSE| Simulation step         Convergence     Electron number  ETRS Iterations
 RTBSE|             199     0.89543455E-007     0.10000000E+002                5
 RTBSE| Simulation step         Convergence     Electron number  ETRS Iterations
 RTBSE|             200     0.79175452E-007     0.10000000E+002                5
 RTBSE| Simulation step         Convergence     Electron number  ETRS Iterations
 RTBSE|             201     0.67300719E-007     0.10000000E+002                5
 RTBSE| Simulation step         Convergence     Electron number  ETRS Iterations
 RTBSE|             202     0.61260698E-007     0.10000000E+002                5
 RTBSE| Simulation step         Convergence     Electron number  ETRS Iterations
 RTBSE|             203     0.56572267E-007     0.10000000E+002                5
 RTBSE| Simulation step         Convergence     Electron number  ETRS Iterations
 RTBSE|             204     0.51956981E-007     0.10000000E+002                5
 RTBSE| Simulation step         Convergence     Electron number  ETRS Iterations
 RTBSE|             205     0.47678604E-007     0.10000000E+002                5
 RTBSE| Simulation step         Convergence     Electron number  ETRS Iterations
 RTBSE|             206     0.42434640E-007     0.10000000E+002                5
 RTBSE| Simulation step         Convergence     Electron number  ETRS Iterations
 RTBSE|             207     0.36444709E-007     0.10000000E+002                5
 RTBSE| Simulation step         Convergence     Electron number  ETRS Iterations
 RTBSE|             208     0.45609002E-007     0.10000000E+002                5
 RTBSE| Simulation step         Convergence     Electron number  ETRS Iterations
 RTBSE|             209     0.63588776E-007     0.10000000E+002                5
 RTBSE| Simulation step         Convergence     Electron number  ETRS Iterations
 RTBSE|             210     0.81588519E-007     0.10000000E+002                5
 RTBSE| Simulation step         Convergence     Electron number  ETRS Iterations
 RTBSE|             211     0.99223737E-007     0.10000000E+002                5
 RTBSE| Simulation step         Convergence     Electron number  ETRS Iterations
 RTBSE|             212     0.14933422E-007     0.10000000E+002                6
 RTBSE| Simulation step         Convergence     Electron number  ETRS Iterations
 RTBSE|             213     0.16754957E-007     0.10000000E+002                6
 RTBSE| Simulation step         Convergence     Electron number  ETRS Iterations
 RTBSE|             214     0.18393030E-007     0.10000000E+002                6
 RTBSE| Simulation step         Convergence     Electron number  ETRS Iterations
 RTBSE|             215     0.19807592E-007     0.10000000E+002                6
 RTBSE| Simulation step         Convergence     Electron number  ETRS Iterations
 RTBSE|             216     0.20960313E-007     0.10000000E+002                6
 RTBSE| Simulation step         Convergence     Electron number  ETRS Iterations
 RTBSE|             217     0.21808850E-007     0.10000000E+002                6
 RTBSE| Simulation step         Convergence     Electron number  ETRS Iterations
 RTBSE|             218     0.22335564E-007     0.10000000E+002                6
 RTBSE| Simulation step         Convergence     Electron number  ETRS Iterations
 RTBSE|             219     0.22508093E-007     0.10000000E+002                6
 RTBSE| Simulation step         Convergence     Electron number  ETRS Iterations
 RTBSE|             220     0.22327950E-007     0.10000000E+002                6
 RTBSE| Simulation step         Convergence     Electron number  ETRS Iterations
 RTBSE|             221     0.22874471E-007     0.10000000E+002                6
 RTBSE| Simulation step         Convergence     Electron number  ETRS Iterations
 RTBSE|             222     0.23172630E-007     0.10000000E+002                6
 RTBSE| Simulation step         Convergence     Electron number  ETRS Iterations
 RTBSE|             223     0.23138608E-007     0.10000000E+002                6
 RTBSE| Simulation step         Convergence     Electron number  ETRS Iterations
 RTBSE|             224     0.22737448E-007     0.10000000E+002                6
 RTBSE| Simulation step         Convergence     Electron number  ETRS Iterations
 RTBSE|             225     0.21970355E-007     0.10000000E+002                6
 RTBSE| Simulation step         Convergence     Electron number  ETRS Iterations
 RTBSE|             226     0.20813500E-007     0.10000000E+002                6
 RTBSE| Simulation step         Convergence     Electron number  ETRS Iterations
 RTBSE|             227     0.96802138E-007     0.10000000E+002                5
 RTBSE| Simulation step         Convergence     Electron number  ETRS Iterations
 RTBSE|             228     0.89374372E-007     0.10000000E+002                5
 RTBSE| Simulation step         Convergence     Electron number  ETRS Iterations
 RTBSE|             229     0.80946539E-007     0.10000000E+002                5
 RTBSE| Simulation step         Convergence     Electron number  ETRS Iterations
 RTBSE|             230     0.71965555E-007     0.10000000E+002                5
 RTBSE| Simulation step         Convergence     Electron number  ETRS Iterations
 RTBSE|             231     0.64211223E-007     0.10000000E+002                5
 RTBSE| Simulation step         Convergence     Electron number  ETRS Iterations
 RTBSE|             232     0.55283081E-007     0.10000000E+002                5
 RTBSE| Simulation step         Convergence     Electron number  ETRS Iterations
 RTBSE|             233     0.47621806E-007     0.10000000E+002                5
 RTBSE| Simulation step         Convergence     Electron number  ETRS Iterations
 RTBSE|             234     0.71911149E-007     0.10000000E+002                5
 RTBSE| Simulation step         Convergence     Electron number  ETRS Iterations
 RTBSE|             235     0.95366212E-007     0.10000000E+002                5
 RTBSE| Simulation step         Convergence     Electron number  ETRS Iterations
 RTBSE|             236     0.16044004E-007     0.10000000E+002                6
 RTBSE| Simulation step         Convergence     Electron number  ETRS Iterations
 RTBSE|             237     0.18575503E-007     0.10000000E+002                6
 RTBSE| Simulation step         Convergence     Electron number  ETRS Iterations
 RTBSE|             238     0.20914128E-007     0.10000000E+002                6
 RTBSE| Simulation step         Convergence     Electron number  ETRS Iterations
 RTBSE|             239     0.22960733E-007     0.10000000E+002                6
 RTBSE| Simulation step         Convergence     Electron number  ETRS Iterations
 RTBSE|             240     0.24681887E-007     0.10000000E+002                6
 RTBSE| Simulation step         Convergence     Electron number  ETRS Iterations
 RTBSE|             241     0.26049557E-007     0.10000000E+002                6
 RTBSE| Simulation step         Convergence     Electron number  ETRS Iterations
 RTBSE|             242     0.27058955E-007     0.10000000E+002                6
 RTBSE| Simulation step         Convergence     Electron number  ETRS Iterations
 RTBSE|             243     0.27696308E-007     0.10000000E+002                6
 RTBSE| Simulation step         Convergence     Electron number  ETRS Iterations
 RTBSE|             244     0.27945296E-007     0.10000000E+002                6
 RTBSE| Simulation step         Convergence     Electron number  ETRS Iterations
 RTBSE|             245     0.27852009E-007     0.10000000E+002                6
 RTBSE| Simulation step         Convergence     Electron number  ETRS Iterations
 RTBSE|             246     0.27343821E-007     0.10000000E+002                6
 RTBSE| Simulation step         Convergence     Electron number  ETRS Iterations
 RTBSE|             247     0.27588904E-007     0.10000000E+002                6
 RTBSE| Simulation step         Convergence     Electron number  ETRS Iterations
 RTBSE|             248     0.27814810E-007     0.10000000E+002                6
 RTBSE| Simulation step         Convergence     Electron number  ETRS Iterations
 RTBSE|             249     0.27671335E-007     0.10000000E+002                6
 RTBSE| Simulation step         Convergence     Electron number  ETRS Iterations
 RTBSE|             250     0.27171403E-007     0.10000000E+002                6
 RTBSE| Simulation step         Convergence     Electron number  ETRS Iterations
 RTBSE|             251     0.26328160E-007     0.10000000E+002                6
 RTBSE| Simulation step         Convergence     Electron number  ETRS Iterations
 RTBSE|             252     0.25093066E-007     0.10000000E+002                6
 RTBSE| Simulation step         Convergence     Electron number  ETRS Iterations
 RTBSE|             253     0.23438625E-007     0.10000000E+002                6
 RTBSE| Simulation step         Convergence     Electron number  ETRS Iterations
 RTBSE|             254     0.21382361E-007     0.10000000E+002                6
 RTBSE| Simulation step         Convergence     Electron number  ETRS Iterations
 RTBSE|             255     0.18927160E-007     0.10000000E+002                6
 RTBSE| Simulation step         Convergence     Electron number  ETRS Iterations
 RTBSE|             256     0.93476256E-007     0.10000000E+002                5
 RTBSE| Simulation step         Convergence     Electron number  ETRS Iterations
 RTBSE|             257     0.84806680E-007     0.10000000E+002                5
 RTBSE| Simulation step         Convergence     Electron number  ETRS Iterations
 RTBSE|             258     0.74568537E-007     0.10000000E+002                5
 RTBSE| Simulation step         Convergence     Electron number  ETRS Iterations
 RTBSE|             259     0.67106202E-007     0.10000000E+002                5
 RTBSE| Simulation step         Convergence     Electron number  ETRS Iterations
 RTBSE|             260     0.14786252E-007     0.10000000E+002                6
 RTBSE| Simulation step         Convergence     Electron number  ETRS Iterations
 RTBSE|             261     0.18772764E-007     0.10000000E+002                6
 RTBSE| Simulation step         Convergence     Electron number  ETRS Iterations
 RTBSE|             262     0.22814307E-007     0.10000000E+002                6
 RTBSE| Simulation step         Convergence     Electron number  ETRS Iterations
 RTBSE|             263     0.26784111E-007     0.10000000E+002                6
 RTBSE| Simulation step         Convergence     Electron number  ETRS Iterations
 RTBSE|             264     0.30586175E-007     0.10000000E+002                6
 RTBSE| Simulation step         Convergence     Electron number  ETRS Iterations
 RTBSE|             265     0.34127349E-007     0.10000000E+002                6
 RTBSE| Simulation step         Convergence     Electron number  ETRS Iterations
 RTBSE|             266     0.37248405E-007     0.10000000E+002                6
 RTBSE| Simulation step         Convergence     Electron number  ETRS Iterations
 RTBSE|             267     0.39875361E-007     0.10000000E+002                6
 RTBSE| Simulation step         Convergence     Electron number  ETRS Iterations
 RTBSE|             268     0.41947417E-007     0.10000000E+002                6
 RTBSE| Simulation step         Convergence     Electron number  ETRS Iterations
 RTBSE|             269     0.43415085E-007     0.10000000E+002                6
 RTBSE| Simulation step         Convergence     Electron number  ETRS Iterations
 RTBSE|             270     0.44180781E-007     0.10000000E+002                6
 RTBSE| Simulation step         Convergence     Electron number  ETRS Iterations
 RTBSE|             271     0.44212704E-007     0.10000000E+002                6
 RTBSE| Simulation step         Convergence     Electron number  ETRS Iterations
 RTBSE|             272     0.44884681E-007     0.10000000E+002                6
 RTBSE| Simulation step         Convergence     Electron number  ETRS Iterations
 RTBSE|             273     0.45677210E-007     0.10000000E+002                6
 RTBSE| Simulation step         Convergence     Electron number  ETRS Iterations
 RTBSE|             274     0.45675034E-007     0.10000000E+002                6
 RTBSE| Simulation step         Convergence     Electron number  ETRS Iterations
 RTBSE|             275     0.44853549E-007     0.10000000E+002                6
 RTBSE| Simulation step         Convergence     Electron number  ETRS Iterations
 RTBSE|             276     0.43184662E-007     0.10000000E+002                6
 RTBSE| Simulation step         Convergence     Electron number  ETRS Iterations
 RTBSE|             277     0.40748561E-007     0.10000000E+002                6
 RTBSE| Simulation step         Convergence     Electron number  ETRS Iterations
 RTBSE|             278     0.37583726E-007     0.10000000E+002                6
 RTBSE| Simulation step         Convergence     Electron number  ETRS Iterations
 RTBSE|             279     0.33802861E-007     0.10000000E+002                6
 RTBSE| Simulation step         Convergence     Electron number  ETRS Iterations
 RTBSE|             280     0.29439911E-007     0.10000000E+002                6
 RTBSE| Simulation step         Convergence     Electron number  ETRS Iterations
 RTBSE|             281     0.24573428E-007     0.10000000E+002                6
 RTBSE| Simulation step         Convergence     Electron number  ETRS Iterations
 RTBSE|             282     0.19315031E-007     0.10000000E+002                6
 RTBSE| Simulation step         Convergence     Electron number  ETRS Iterations
 RTBSE|             283     0.13822775E-007     0.10000000E+002                6
 RTBSE| Simulation step         Convergence     Electron number  ETRS Iterations
 RTBSE|             284     0.85763757E-007     0.10000000E+002                5
 RTBSE| Simulation step         Convergence     Electron number  ETRS Iterations
 RTBSE|             285     0.17388075E-007     0.10000000E+002                6
 RTBSE| Simulation step         Convergence     Electron number  ETRS Iterations
 RTBSE|             286     0.22236543E-007     0.10000000E+002                6
 RTBSE| Simulation step         Convergence     Electron number  ETRS Iterations
 RTBSE|             287     0.26901185E-007     0.10000000E+002                6
 RTBSE| Simulation step         Convergence     Electron number  ETRS Iterations
 RTBSE|             288     0.31236553E-007     0.10000000E+002                6
 RTBSE| Simulation step         Convergence     Electron number  ETRS Iterations
 RTBSE|             289     0.35095916E-007     0.10000000E+002                6
 RTBSE| Simulation step         Convergence     Electron number  ETRS Iterations
 RTBSE|             290     0.38461993E-007     0.10000000E+002                6
 RTBSE| Simulation step         Convergence     Electron number  ETRS Iterations
 RTBSE|             291     0.41274635E-007     0.10000000E+002                6
 RTBSE| Simulation step         Convergence     Electron number  ETRS Iterations
 RTBSE|             292     0.43529905E-007     0.10000000E+002                6
 RTBSE| Simulation step         Convergence     Electron number  ETRS Iterations
 RTBSE|             293     0.45160566E-007     0.10000000E+002                6
 RTBSE| Simulation step         Convergence     Electron number  ETRS Iterations
 RTBSE|             294     0.46154449E-007     0.10000000E+002                6
 RTBSE| Simulation step         Convergence     Electron number  ETRS Iterations
 RTBSE|             295     0.46531663E-007     0.10000000E+002                6
 RTBSE| Simulation step         Convergence     Electron number  ETRS Iterations
 RTBSE|             296     0.46335468E-007     0.10000000E+002                6
 RTBSE| Simulation step         Convergence     Electron number  ETRS Iterations
 RTBSE|             297     0.45563394E-007     0.10000000E+002                6
 RTBSE| Simulation step         Convergence     Electron number  ETRS Iterations
 RTBSE|             298     0.44791673E-007     0.10000000E+002                6
 RTBSE| Simulation step         Convergence     Electron number  ETRS Iterations
 RTBSE|             299     0.45323621E-007     0.10000000E+002                6
 RTBSE| Simulation step         Convergence     Electron number  ETRS Iterations
 RTBSE|             300     0.45342987E-007     0.10000000E+002                6
 RTBSE| Simulation step         Convergence     Electron number  ETRS Iterations
 RTBSE|             301     0.44850520E-007     0.10000000E+002                6
 RTBSE| Simulation step         Convergence     Electron number  ETRS Iterations
 RTBSE|             302     0.43837052E-007     0.10000000E+002                6
 RTBSE| Simulation step         Convergence     Electron number  ETRS Iterations
 RTBSE|             303     0.42248072E-007     0.10000000E+002                6
 RTBSE| Simulation step         Convergence     Electron number  ETRS Iterations
 RTBSE|             304     0.40050924E-007     0.10000000E+002                6
 RTBSE| Simulation step         Convergence     Electron number  ETRS Iterations
 RTBSE|             305     0.37177740E-007     0.10000000E+002                6
 RTBSE| Simulation step         Convergence     Electron number  ETRS Iterations
 RTBSE|             306     0.33599719E-007     0.10000000E+002                6
 RTBSE| Simulation step         Convergence     Electron number  ETRS Iterations
 RTBSE|             307     0.29282802E-007     0.10000000E+002                6
 RTBSE| Simulation step         Convergence     Electron number  ETRS Iterations
 RTBSE|             308     0.24171179E-007     0.10000000E+002                6
 RTBSE| Simulation step         Convergence     Electron number  ETRS Iterations
 RTBSE|             309     0.18298113E-007     0.10000000E+002                6
 RTBSE| Simulation step         Convergence     Electron number  ETRS Iterations
 RTBSE|             310     0.16695787E-007     0.10000000E+002                6
 RTBSE| Simulation step         Convergence     Electron number  ETRS Iterations
 RTBSE|             311     0.23074927E-007     0.10000000E+002                6
 RTBSE| Simulation step         Convergence     Electron number  ETRS Iterations
 RTBSE|             312     0.30142302E-007     0.10000000E+002                6
 RTBSE| Simulation step         Convergence     Electron number  ETRS Iterations
 RTBSE|             313     0.37498318E-007     0.10000000E+002                6
 RTBSE| Simulation step         Convergence     Electron number  ETRS Iterations
 RTBSE|             314     0.44848780E-007     0.10000000E+002                6
 RTBSE| Simulation step         Convergence     Electron number  ETRS Iterations
 RTBSE|             315     0.51863400E-007     0.10000000E+002                6
 RTBSE| Simulation step         Convergence     Electron number  ETRS Iterations
 RTBSE|             316     0.58400419E-007     0.10000000E+002                6
 RTBSE| Simulation step         Convergence     Electron number  ETRS Iterations
 RTBSE|             317     0.64217818E-007     0.10000000E+002                6
 RTBSE| Simulation step         Convergence     Electron number  ETRS Iterations
 RTBSE|             318     0.69140876E-007     0.10000000E+002                6
 RTBSE| Simulation step         Convergence     Electron number  ETRS Iterations
 RTBSE|             319     0.73048369E-007     0.10000000E+002                6
 RTBSE| Simulation step         Convergence     Electron number  ETRS Iterations
 RTBSE|             320     0.75713350E-007     0.10000000E+002                6
 RTBSE| Simulation step         Convergence     Electron number  ETRS Iterations
 RTBSE|             321     0.77049748E-007     0.10000000E+002                6
 RTBSE| Simulation step         Convergence     Electron number  ETRS Iterations
 RTBSE|             322     0.77021858E-007     0.10000000E+002                6
 RTBSE| Simulation step         Convergence     Electron number  ETRS Iterations
 RTBSE|             323     0.77107375E-007     0.10000000E+002                6
 RTBSE| Simulation step         Convergence     Electron number  ETRS Iterations
 RTBSE|             324     0.78149916E-007     0.10000000E+002                6
 RTBSE| Simulation step         Convergence     Electron number  ETRS Iterations
 RTBSE|             325     0.77818365E-007     0.10000000E+002                6
 RTBSE| Simulation step         Convergence     Electron number  ETRS Iterations
 RTBSE|             326     0.76073889E-007     0.10000000E+002                6
 RTBSE| Simulation step         Convergence     Electron number  ETRS Iterations
 RTBSE|             327     0.72983481E-007     0.10000000E+002                6
 RTBSE| Simulation step         Convergence     Electron number  ETRS Iterations
 RTBSE|             328     0.68617571E-007     0.10000000E+002                6
 RTBSE| Simulation step         Convergence     Electron number  ETRS Iterations
 RTBSE|             329     0.63056302E-007     0.10000000E+002                6
 RTBSE| Simulation step         Convergence     Electron number  ETRS Iterations
 RTBSE|             330     0.56514281E-007     0.10000000E+002                6
 RTBSE| Simulation step         Convergence     Electron number  ETRS Iterations
 RTBSE|             331     0.49101241E-007     0.10000000E+002                6
 RTBSE| Simulation step         Convergence     Electron number  ETRS Iterations
 RTBSE|             332     0.40998390E-007     0.10000000E+002                6
 RTBSE| Simulation step         Convergence     Electron number  ETRS Iterations
 RTBSE|             333     0.32385351E-007     0.10000000E+002                6
 RTBSE| Simulation step         Convergence     Electron number  ETRS Iterations
 RTBSE|             334     0.23406557E-007     0.10000000E+002                6
 RTBSE| Simulation step         Convergence     Electron number  ETRS Iterations
 RTBSE|             335     0.17774180E-007     0.10000000E+002                6
 RTBSE| Simulation step         Convergence     Electron number  ETRS Iterations
 RTBSE|             336     0.24718169E-007     0.10000000E+002                6
 RTBSE| Simulation step         Convergence     Electron number  ETRS Iterations
 RTBSE|             337     0.31999570E-007     0.10000000E+002                6
 RTBSE| Simulation step         Convergence     Electron number  ETRS Iterations
 RTBSE|             338     0.38999801E-007     0.10000000E+002                6
 RTBSE| Simulation step         Convergence     Electron number  ETRS Iterations
 RTBSE|             339     0.45404613E-007     0.10000000E+002                6
 RTBSE| Simulation step         Convergence     Electron number  ETRS Iterations
 RTBSE|             340     0.51104337E-007     0.10000000E+002                6
 RTBSE| Simulation step         Convergence     Electron number  ETRS Iterations
 RTBSE|             341     0.55939800E-007     0.10000000E+002                6
 RTBSE| Simulation step         Convergence     Electron number  ETRS Iterations
 RTBSE|             342     0.59837594E-007     0.10000000E+002                6
 RTBSE| Simulation step         Convergence     Electron number  ETRS Iterations
 RTBSE|             343     0.62826060E-007     0.10000000E+002                6
 RTBSE| Simulation step         Convergence     Electron number  ETRS Iterations
 RTBSE|             344     0.64941647E-007     0.10000000E+002                6
 RTBSE| Simulation step         Convergence     Electron number  ETRS Iterations
 RTBSE|             345     0.66221462E-007     0.10000000E+002                6
 RTBSE| Simulation step         Convergence     Electron number  ETRS Iterations
 RTBSE|             346     0.66684461E-007     0.10000000E+002                6
 RTBSE| Simulation step         Convergence     Electron number  ETRS Iterations
 RTBSE|             347     0.66407453E-007     0.10000000E+002                6
 RTBSE| Simulation step         Convergence     Electron number  ETRS Iterations
 RTBSE|             348     0.65381464E-007     0.10000000E+002                6
 RTBSE| Simulation step         Convergence     Electron number  ETRS Iterations
 RTBSE|             349     0.63857349E-007     0.10000000E+002                6
 RTBSE| Simulation step         Convergence     Electron number  ETRS Iterations
 RTBSE|             350     0.64235541E-007     0.10000000E+002                6
 RTBSE| Simulation step         Convergence     Electron number  ETRS Iterations
 RTBSE|             351     0.64036371E-007     0.10000000E+002                6
 RTBSE| Simulation step         Convergence     Electron number  ETRS Iterations
 RTBSE|             352     0.63752525E-007     0.10000000E+002                6
 RTBSE| Simulation step         Convergence     Electron number  ETRS Iterations
 RTBSE|             353     0.63213375E-007     0.10000000E+002                6
 RTBSE| Simulation step         Convergence     Electron number  ETRS Iterations
 RTBSE|             354     0.61945967E-007     0.10000000E+002                6
 RTBSE| Simulation step         Convergence     Electron number  ETRS Iterations
 RTBSE|             355     0.59831224E-007     0.10000000E+002                6
 RTBSE| Simulation step         Convergence     Electron number  ETRS Iterations
 RTBSE|             356     0.56713719E-007     0.10000000E+002                6
 RTBSE| Simulation step         Convergence     Electron number  ETRS Iterations
 RTBSE|             357     0.52454760E-007     0.10000000E+002                6
 RTBSE| Simulation step         Convergence     Electron number  ETRS Iterations
 RTBSE|             358     0.46955730E-007     0.10000000E+002                6
 RTBSE| Simulation step         Convergence     Electron number  ETRS Iterations
 RTBSE|             359     0.40146596E-007     0.10000000E+002                6
 RTBSE| Simulation step         Convergence     Electron number  ETRS Iterations
 RTBSE|             360     0.31977351E-007     0.10000000E+002                6
 RTBSE| Simulation step         Convergence     Electron number  ETRS Iterations
 RTBSE|             361     0.22466063E-007     0.10000000E+002                6
 RTBSE| Simulation step         Convergence     Electron number  ETRS Iterations
 RTBSE|             362     0.30332681E-007     0.10000000E+002                6
 RTBSE| Simulation step         Convergence     Electron number  ETRS Iterations
 RTBSE|             363     0.41225715E-007     0.10000000E+002                6
 RTBSE| Simulation step         Convergence     Electron number  ETRS Iterations
 RTBSE|             364     0.52884030E-007     0.10000000E+002                6
 RTBSE| Simulation step         Convergence     Electron number  ETRS Iterations
 RTBSE|             365     0.64759624E-007     0.10000000E+002                6
 RTBSE| Simulation step         Convergence     Electron number  ETRS Iterations
 RTBSE|             366     0.76396248E-007     0.10000000E+002                6
 RTBSE| Simulation step         Convergence     Electron number  ETRS Iterations
 RTBSE|             367     0.87413864E-007     0.10000000E+002                6
 RTBSE| Simulation step         Convergence     Electron number  ETRS Iterations
 RTBSE|             368     0.97337762E-007     0.10000000E+002                6
 RTBSE| Simulation step         Convergence     Electron number  ETRS Iterations
 RTBSE|             369     0.19586888E-007     0.10000000E+002                7
 RTBSE| Simulation step         Convergence     Electron number  ETRS Iterations
 RTBSE|             370     0.20959745E-007     0.10000000E+002                7
 RTBSE| Simulation step         Convergence     Electron number  ETRS Iterations
 RTBSE|             371     0.21963961E-007     0.10000000E+002                7
 RTBSE| Simulation step         Convergence     Electron number  ETRS Iterations
 RTBSE|             372     0.22550734E-007     0.10000000E+002                7
 RTBSE| Simulation step         Convergence     Electron number  ETRS Iterations
 RTBSE|             373     0.22738044E-007     0.10000000E+002                7
 RTBSE| Simulation step         Convergence     Electron number  ETRS Iterations
 RTBSE|             374     0.22471395E-007     0.10000000E+002                7
 RTBSE| Simulation step         Convergence     Electron number  ETRS Iterations
 RTBSE|             375     0.21795745E-007     0.10000000E+002                7
 RTBSE| Simulation step         Convergence     Electron number  ETRS Iterations
 RTBSE|             376     0.20716678E-007     0.10000000E+002                7
 RTBSE| Simulation step         Convergence     Electron number  ETRS Iterations
 RTBSE|             377     0.19282051E-007     0.10000000E+002                7
 RTBSE| Simulation step         Convergence     Electron number  ETRS Iterations
 RTBSE|             378     0.17537788E-007     0.10000000E+002                7
 RTBSE| Simulation step         Convergence     Electron number  ETRS Iterations
 RTBSE|             379     0.15515916E-007     0.10000000E+002                7
 RTBSE| Simulation step         Convergence     Electron number  ETRS Iterations
 RTBSE|             380     0.96439130E-007     0.10000000E+002                6
 RTBSE| Simulation step         Convergence     Electron number  ETRS Iterations
 RTBSE|             381     0.86506429E-007     0.10000000E+002                6
 RTBSE| Simulation step         Convergence     Electron number  ETRS Iterations
 RTBSE|             382     0.75317803E-007     0.10000000E+002                6
 RTBSE| Simulation step         Convergence     Electron number  ETRS Iterations
 RTBSE|             383     0.63200802E-007     0.10000000E+002                6
 RTBSE| Simulation step         Convergence     Electron number  ETRS Iterations
 RTBSE|             384     0.50444234E-007     0.10000000E+002                6
 RTBSE| Simulation step         Convergence     Electron number  ETRS Iterations
 RTBSE|             385     0.37326940E-007     0.10000000E+002                6
 RTBSE| Simulation step         Convergence     Electron number  ETRS Iterations
 RTBSE|             386     0.24221927E-007     0.10000000E+002                6
 RTBSE| Simulation step         Convergence     Electron number  ETRS Iterations
 RTBSE|             387     0.29538190E-007     0.10000000E+002                6
 RTBSE| Simulation step         Convergence     Electron number  ETRS Iterations
 RTBSE|             388     0.39411817E-007     0.10000000E+002                6
 RTBSE| Simulation step         Convergence     Electron number  ETRS Iterations
 RTBSE|             389     0.49000176E-007     0.10000000E+002                6
 RTBSE| Simulation step         Convergence     Electron number  ETRS Iterations
 RTBSE|             390     0.57732030E-007     0.10000000E+002                6
 RTBSE| Simulation step         Convergence     Electron number  ETRS Iterations
 RTBSE|             391     0.65295431E-007     0.10000000E+002                6
 RTBSE| Simulation step         Convergence     Electron number  ETRS Iterations
 RTBSE|             392     0.71588157E-007     0.10000000E+002                6
 RTBSE| Simulation step         Convergence     Electron number  ETRS Iterations
 RTBSE|             393     0.76583616E-007     0.10000000E+002                6
 RTBSE| Simulation step         Convergence     Electron number  ETRS Iterations
 RTBSE|             394     0.80350150E-007     0.10000000E+002                6
 RTBSE| Simulation step         Convergence     Electron number  ETRS Iterations
 RTBSE|             395     0.83014767E-007     0.10000000E+002                6
 RTBSE| Simulation step         Convergence     Electron number  ETRS Iterations
 RTBSE|             396     0.84582748E-007     0.10000000E+002                6
 RTBSE| Simulation step         Convergence     Electron number  ETRS Iterations
 RTBSE|             397     0.85222539E-007     0.10000000E+002                6
 RTBSE| Simulation step         Convergence     Electron number  ETRS Iterations
 RTBSE|             398     0.85105006E-007     0.10000000E+002                6
 RTBSE| Simulation step         Convergence     Electron number  ETRS Iterations
 RTBSE|             399     0.84324901E-007     0.10000000E+002                6
 RTBSE| Simulation step         Convergence     Electron number  ETRS Iterations
 RTBSE|             400     0.82947683E-007     0.10000000E+002                6
 RTBSE| Simulation step         Convergence     Electron number  ETRS Iterations
 RTBSE|             401     0.82941013E-007     0.10000000E+002                6
 RTBSE| Simulation step         Convergence     Electron number  ETRS Iterations
 RTBSE|             402     0.83615265E-007     0.10000000E+002                6
 RTBSE| Simulation step         Convergence     Electron number  ETRS Iterations
 RTBSE|             403     0.83681935E-007     0.10000000E+002                6
 RTBSE| Simulation step         Convergence     Electron number  ETRS Iterations
 RTBSE|             404     0.83051486E-007     0.10000000E+002                6
 RTBSE| Simulation step         Convergence     Electron number  ETRS Iterations
 RTBSE|             405     0.83133178E-007     0.10000000E+002                6
 RTBSE| Simulation step         Convergence     Electron number  ETRS Iterations
 RTBSE|             406     0.82170975E-007     0.10000000E+002                6
 RTBSE| Simulation step         Convergence     Electron number  ETRS Iterations
 RTBSE|             407     0.79806463E-007     0.10000000E+002                6
 RTBSE| Simulation step         Convergence     Electron number  ETRS Iterations
 RTBSE|             408     0.75748671E-007     0.10000000E+002                6
 RTBSE| Simulation step         Convergence     Electron number  ETRS Iterations
 RTBSE|             409     0.69744312E-007     0.10000000E+002                6
 RTBSE| Simulation step         Convergence     Electron number  ETRS Iterations
 RTBSE|             410     0.61608376E-007     0.10000000E+002                6
 RTBSE| Simulation step         Convergence     Electron number  ETRS Iterations
 RTBSE|             411     0.51233801E-007     0.10000000E+002                6
 RTBSE| Simulation step         Convergence     Electron number  ETRS Iterations
 RTBSE|             412     0.38590634E-007     0.10000000E+002                6
 RTBSE| Simulation step         Convergence     Electron number  ETRS Iterations
 RTBSE|             413     0.35395087E-007     0.10000000E+002                6
 RTBSE| Simulation step         Convergence     Electron number  ETRS Iterations
 RTBSE|             414     0.50485821E-007     0.10000000E+002                6
 RTBSE| Simulation step         Convergence     Electron number  ETRS Iterations
 RTBSE|             415     0.67461042E-007     0.10000000E+002                6
 RTBSE| Simulation step         Convergence     Electron number  ETRS Iterations
 RTBSE|             416     0.85111605E-007     0.10000000E+002                6
 RTBSE| Simulation step         Convergence     Electron number  ETRS Iterations
 RTBSE|             417     0.18086007E-007     0.10000000E+002                7
 RTBSE| Simulation step         Convergence     Electron number  ETRS Iterations
 RTBSE|             418     0.21383373E-007     0.10000000E+002                7
 RTBSE| Simulation step         Convergence     Electron number  ETRS Iterations
 RTBSE|             419     0.24352311E-007     0.10000000E+002                7
 RTBSE| Simulation step         Convergence     Electron number  ETRS Iterations
 RTBSE|             420     0.26914249E-007     0.10000000E+002                7
 RTBSE| Simulation step         Convergence     Electron number  ETRS Iterations
 RTBSE|             421     0.28987559E-007     0.10000000E+002                7
 RTBSE| Simulation step         Convergence     Electron number  ETRS Iterations
 RTBSE|             422     0.30498229E-007     0.10000000E+002                7
 RTBSE| Simulation step         Convergence     Electron number  ETRS Iterations
 RTBSE|             423     0.31420917E-007     0.10000000E+002                7
 RTBSE| Simulation step         Convergence     Electron number  ETRS Iterations
 RTBSE|             424     0.31726840E-007     0.10000000E+002                7
 RTBSE| Simulation step         Convergence     Electron number  ETRS Iterations
 RTBSE|             425     0.31419429E-007     0.10000000E+002                7
 RTBSE| Simulation step         Convergence     Electron number  ETRS Iterations
 RTBSE|             426     0.30539652E-007     0.10000000E+002                7
 RTBSE| Simulation step         Convergence     Electron number  ETRS Iterations
 RTBSE|             427     0.29108023E-007     0.10000000E+002                7
 RTBSE| Simulation step         Convergence     Electron number  ETRS Iterations
 RTBSE|             428     0.27180700E-007     0.10000000E+002                7
 RTBSE| Simulation step         Convergence     Electron number  ETRS Iterations
 RTBSE|             429     0.24803834E-007     0.10000000E+002                7
 RTBSE| Simulation step         Convergence     Electron number  ETRS Iterations
 RTBSE|             430     0.22044312E-007     0.10000000E+002                7
 RTBSE| Simulation step         Convergence     Electron number  ETRS Iterations
 RTBSE|             431     0.18997536E-007     0.10000000E+002                7
 RTBSE| Simulation step         Convergence     Electron number  ETRS Iterations
 RTBSE|             432     0.15738781E-007     0.10000000E+002                7
 RTBSE| Simulation step         Convergence     Electron number  ETRS Iterations
 RTBSE|             433     0.12645125E-007     0.10000000E+002                7
 RTBSE| Simulation step         Convergence     Electron number  ETRS Iterations
 RTBSE|             434     0.88207280E-007     0.10000000E+002                6
 RTBSE| Simulation step         Convergence     Electron number  ETRS Iterations
 RTBSE|             435     0.70820487E-007     0.10000000E+002                6
 RTBSE| Simulation step         Convergence     Electron number  ETRS Iterations
 RTBSE|             436     0.53181066E-007     0.10000000E+002                6
 RTBSE| Simulation step         Convergence     Electron number  ETRS Iterations
 RTBSE|             437     0.35751704E-007     0.10000000E+002                6
 RTBSE| Simulation step         Convergence     Electron number  ETRS Iterations
 RTBSE|             438     0.32098847E-007     0.10000000E+002                6
 RTBSE| Simulation step         Convergence     Electron number  ETRS Iterations
 RTBSE|             439     0.44201891E-007     0.10000000E+002                6
 RTBSE| Simulation step         Convergence     Electron number  ETRS Iterations
 RTBSE|             440     0.56106806E-007     0.10000000E+002                6
 RTBSE| Simulation step         Convergence     Electron number  ETRS Iterations
 RTBSE|             441     0.66822719E-007     0.10000000E+002                6
 RTBSE| Simulation step         Convergence     Electron number  ETRS Iterations
 RTBSE|             442     0.75936367E-007     0.10000000E+002                6
 RTBSE| Simulation step         Convergence     Electron number  ETRS Iterations
 RTBSE|             443     0.83341758E-007     0.10000000E+002                6
 RTBSE| Simulation step         Convergence     Electron number  ETRS Iterations
 RTBSE|             444     0.89019744E-007     0.10000000E+002                6
 RTBSE| Simulation step         Convergence     Electron number  ETRS Iterations
 RTBSE|             445     0.93137640E-007     0.10000000E+002                6
 RTBSE| Simulation step         Convergence     Electron number  ETRS Iterations
 RTBSE|             446     0.95899907E-007     0.10000000E+002                6
 RTBSE| Simulation step         Convergence     Electron number  ETRS Iterations
 RTBSE|             447     0.97582404E-007     0.10000000E+002                6
 RTBSE| Simulation step         Convergence     Electron number  ETRS Iterations
 RTBSE|             448     0.98408934E-007     0.10000000E+002                6
 RTBSE| Simulation step         Convergence     Electron number  ETRS Iterations
 RTBSE|             449     0.98547769E-007     0.10000000E+002                6
 RTBSE| Simulation step         Convergence     Electron number  ETRS Iterations
 RTBSE|             450     0.98116085E-007     0.10000000E+002                6
 RTBSE| Simulation step         Convergence     Electron number  ETRS Iterations
 RTBSE|             451     0.97206489E-007     0.10000000E+002                6
 RTBSE| Simulation step         Convergence     Electron number  ETRS Iterations
 RTBSE|             452     0.96207517E-007     0.10000000E+002                6
 RTBSE| Simulation step         Convergence     Electron number  ETRS Iterations
 RTBSE|             453     0.98059008E-007     0.10000000E+002                6
 RTBSE| Simulation step         Convergence     Electron number  ETRS Iterations
 RTBSE|             454     0.99505314E-007     0.10000000E+002                6
 RTBSE| Simulation step         Convergence     Electron number  ETRS Iterations
 RTBSE|             455     0.16142626E-007     0.10000000E+002                7
 RTBSE| Simulation step         Convergence     Electron number  ETRS Iterations
 RTBSE|             456     0.15559532E-007     0.10000000E+002                7
 RTBSE| Simulation step         Convergence     Electron number  ETRS Iterations
 RTBSE|             457     0.14720907E-007     0.10000000E+002                7
 RTBSE| Simulation step         Convergence     Electron number  ETRS Iterations
 RTBSE|             458     0.13566653E-007     0.10000000E+002                7
 RTBSE| Simulation step         Convergence     Electron number  ETRS Iterations
 RTBSE|             459     0.97819009E-007     0.10000000E+002                6
 RTBSE| Simulation step         Convergence     Electron number  ETRS Iterations
 RTBSE|             460     0.92569067E-007     0.10000000E+002                6
 RTBSE| Simulation step         Convergence     Electron number  ETRS Iterations
 RTBSE|             461     0.84380637E-007     0.10000000E+002                6
 RTBSE| Simulation step         Convergence     Electron number  ETRS Iterations
 RTBSE|             462     0.73007349E-007     0.10000000E+002                6
 RTBSE| Simulation step         Convergence     Electron number  ETRS Iterations
 RTBSE|             463     0.58357051E-007     0.10000000E+002                6
 RTBSE| Simulation step         Convergence     Electron number  ETRS Iterations
 RTBSE|             464     0.40546232E-007     0.10000000E+002                6
 RTBSE| Simulation step         Convergence     Electron number  ETRS Iterations
 RTBSE|             465     0.53526338E-007     0.10000000E+002                6
 RTBSE| Simulation step         Convergence     Electron number  ETRS Iterations
 RTBSE|             466     0.74951915E-007     0.10000000E+002                6
 RTBSE| Simulation step         Convergence     Electron number  ETRS Iterations
 RTBSE|             467     0.98112313E-007     0.10000000E+002                6
 RTBSE| Simulation step         Convergence     Electron number  ETRS Iterations
 RTBSE|             468     0.21054523E-007     0.10000000E+002                7
 RTBSE| Simulation step         Convergence     Electron number  ETRS Iterations
 RTBSE|             469     0.25507826E-007     0.10000000E+002                7
 RTBSE| Simulation step         Convergence     Electron number  ETRS Iterations
 RTBSE|             470     0.29571703E-007     0.10000000E+002                7
 RTBSE| Simulation step         Convergence     Electron number  ETRS Iterations
 RTBSE|             471     0.33114172E-007     0.10000000E+002                7
 RTBSE| Simulation step         Convergence     Electron number  ETRS Iterations
 RTBSE|             472     0.36003886E-007     0.10000000E+002                7
 RTBSE| Simulation step         Convergence     Electron number  ETRS Iterations
 RTBSE|             473     0.38158742E-007     0.10000000E+002                7
 RTBSE| Simulation step         Convergence     Electron number  ETRS Iterations
 RTBSE|             474     0.39532162E-007     0.10000000E+002                7
 RTBSE| Simulation step         Convergence     Electron number  ETRS Iterations
 RTBSE|             475     0.40109307E-007     0.10000000E+002                7
 RTBSE| Simulation step         Convergence     Electron number  ETRS Iterations
 RTBSE|             476     0.39907077E-007     0.10000000E+002                7
 RTBSE| Simulation step         Convergence     Electron number  ETRS Iterations
 RTBSE|             477     0.38952786E-007     0.10000000E+002                7
 RTBSE| Simulation step         Convergence     Electron number  ETRS Iterations
 RTBSE|             478     0.37262450E-007     0.10000000E+002                7
 RTBSE| Simulation step         Convergence     Electron number  ETRS Iterations
 RTBSE|             479     0.34918362E-007     0.10000000E+002                7
 RTBSE| Simulation step         Convergence     Electron number  ETRS Iterations
 RTBSE|             480     0.31988697E-007     0.10000000E+002                7
 RTBSE| Simulation step         Convergence     Electron number  ETRS Iterations
 RTBSE|             481     0.28582908E-007     0.10000000E+002                7
 RTBSE| Simulation step         Convergence     Electron number  ETRS Iterations
 RTBSE|             482     0.24768802E-007     0.10000000E+002                7
 RTBSE| Simulation step         Convergence     Electron number  ETRS Iterations
 RTBSE|             483     0.20661461E-007     0.10000000E+002                7
 RTBSE| Simulation step         Convergence     Electron number  ETRS Iterations
 RTBSE|             484     0.16404634E-007     0.10000000E+002                7
 RTBSE| Simulation step         Convergence     Electron number  ETRS Iterations
 RTBSE|             485     0.13779270E-007     0.10000000E+002                7
 RTBSE| Simulation step         Convergence     Electron number  ETRS Iterations
 RTBSE|             486     0.89546220E-007     0.10000000E+002                6
 RTBSE| Simulation step         Convergence     Electron number  ETRS Iterations
 RTBSE|             487     0.67699320E-007     0.10000000E+002                6
 RTBSE| Simulation step         Convergence     Electron number  ETRS Iterations
 RTBSE|             488     0.46520003E-007     0.10000000E+002                6
 RTBSE| Simulation step         Convergence     Electron number  ETRS Iterations
 RTBSE|             489     0.31562833E-007     0.10000000E+002                6
 RTBSE| Simulation step         Convergence     Electron number  ETRS Iterations
 RTBSE|             490     0.44477538E-007     0.10000000E+002                6
 RTBSE| Simulation step         Convergence     Electron number  ETRS Iterations
 RTBSE|             491     0.57555244E-007     0.10000000E+002                6
 RTBSE| Simulation step         Convergence     Electron number  ETRS Iterations
 RTBSE|             492     0.69206251E-007     0.10000000E+002                6
 RTBSE| Simulation step         Convergence     Electron number  ETRS Iterations
 RTBSE|             493     0.78920227E-007     0.10000000E+002                6
 RTBSE| Simulation step         Convergence     Electron number  ETRS Iterations
 RTBSE|             494     0.86670142E-007     0.10000000E+002                6
 RTBSE| Simulation step         Convergence     Electron number  ETRS Iterations
 RTBSE|             495     0.92600894E-007     0.10000000E+002                6
 RTBSE| Simulation step         Convergence     Electron number  ETRS Iterations
 RTBSE|             496     0.96922920E-007     0.10000000E+002                6
 RTBSE| Simulation step         Convergence     Electron number  ETRS Iterations
 RTBSE|             497     0.99966069E-007     0.10000000E+002                6
 RTBSE| Simulation step         Convergence     Electron number  ETRS Iterations
 RTBSE|             498     0.16628134E-007     0.10000000E+002                7
 RTBSE| Simulation step         Convergence     Electron number  ETRS Iterations
 RTBSE|             499     0.17023744E-007     0.10000000E+002                7
 RTBSE| Simulation step         Convergence     Electron number  ETRS Iterations
 RTBSE|             500     0.17355204E-007     0.10000000E+002                7
 RTBSE| Simulation step         Convergence     Electron number  ETRS Iterations
 RTBSE|             501     0.17647601E-007     0.10000000E+002                7
 RTBSE| Simulation step         Convergence     Electron number  ETRS Iterations
 RTBSE|             502     0.17915667E-007     0.10000000E+002                7
 RTBSE| Simulation step         Convergence     Electron number  ETRS Iterations
 RTBSE|             503     0.18144911E-007     0.10000000E+002                7
 RTBSE| Simulation step         Convergence     Electron number  ETRS Iterations
 RTBSE|             504     0.18353762E-007     0.10000000E+002                7
 RTBSE| Simulation step         Convergence     Electron number  ETRS Iterations
 RTBSE|             505     0.18450937E-007     0.10000000E+002                7
 RTBSE| Simulation step         Convergence     Electron number  ETRS Iterations
 RTBSE|             506     0.18423880E-007     0.10000000E+002                7
 RTBSE| Simulation step         Convergence     Electron number  ETRS Iterations
 RTBSE|             507     0.18197091E-007     0.10000000E+002                7
 RTBSE| Simulation step         Convergence     Electron number  ETRS Iterations
 RTBSE|             508     0.17690741E-007     0.10000000E+002                7
 RTBSE| Simulation step         Convergence     Electron number  ETRS Iterations
 RTBSE|             509     0.16821209E-007     0.10000000E+002                7
 RTBSE| Simulation step         Convergence     Electron number  ETRS Iterations
 RTBSE|             510     0.15522101E-007     0.10000000E+002                7
 RTBSE| Simulation step         Convergence     Electron number  ETRS Iterations
 RTBSE|             511     0.13819372E-007     0.10000000E+002                7
 RTBSE| Simulation step         Convergence     Electron number  ETRS Iterations
 RTBSE|             512     0.12834287E-007     0.10000000E+002                7
 RTBSE| Simulation step         Convergence     Electron number  ETRS Iterations
 RTBSE|             513     0.96894697E-007     0.10000000E+002                6
 RTBSE| Simulation step         Convergence     Electron number  ETRS Iterations
 RTBSE|             514     0.82120921E-007     0.10000000E+002                6
 RTBSE| Simulation step         Convergence     Electron number  ETRS Iterations
 RTBSE|             515     0.63094691E-007     0.10000000E+002                6
 RTBSE| Simulation step         Convergence     Electron number  ETRS Iterations
 RTBSE|             516     0.48745002E-007     0.10000000E+002                6
 RTBSE| Simulation step         Convergence     Electron number  ETRS Iterations
 RTBSE|             517     0.72338118E-007     0.10000000E+002                6
 RTBSE| Simulation step         Convergence     Electron number  ETRS Iterations
 RTBSE|             518     0.99825140E-007     0.10000000E+002                6
 RTBSE| Simulation step         Convergence     Electron number  ETRS Iterations
 RTBSE|             519     0.21818842E-007     0.10000000E+002                7
 RTBSE| Simulation step         Convergence     Electron number  ETRS Iterations
 RTBSE|             520     0.27442013E-007     0.10000000E+002                7
 RTBSE| Simulation step         Convergence     Electron number  ETRS Iterations
 RTBSE|             521     0.32671396E-007     0.10000000E+002                7
 RTBSE| Simulation step         Convergence     Electron number  ETRS Iterations
 RTBSE|             522     0.37298832E-007     0.10000000E+002                7
 RTBSE| Simulation step         Convergence     Electron number  ETRS Iterations
 RTBSE|             523     0.41133671E-007     0.10000000E+002                7
 RTBSE| Simulation step         Convergence     Electron number  ETRS Iterations
 RTBSE|             524     0.44090936E-007     0.10000000E+002                7
 RTBSE| Simulation step         Convergence     Electron number  ETRS Iterations
 RTBSE|             525     0.46082753E-007     0.10000000E+002                7
 RTBSE| Simulation step         Convergence     Electron number  ETRS Iterations
 RTBSE|             526     0.47087193E-007     0.10000000E+002                7
 RTBSE| Simulation step         Convergence     Electron number  ETRS Iterations
 RTBSE|             527     0.47114259E-007     0.10000000E+002                7
 RTBSE| Simulation step         Convergence     Electron number  ETRS Iterations
 RTBSE|             528     0.46218328E-007     0.10000000E+002                7
 RTBSE| Simulation step         Convergence     Electron number  ETRS Iterations
 RTBSE|             529     0.44438635E-007     0.10000000E+002                7
 RTBSE| Simulation step         Convergence     Electron number  ETRS Iterations
 RTBSE|             530     0.41825630E-007     0.10000000E+002                7
 RTBSE| Simulation step         Convergence     Electron number  ETRS Iterations
 RTBSE|             531     0.38443964E-007     0.10000000E+002                7
 RTBSE| Simulation step         Convergence     Electron number  ETRS Iterations
 RTBSE|             532     0.34413646E-007     0.10000000E+002                7
 RTBSE| Simulation step         Convergence     Electron number  ETRS Iterations
 RTBSE|             533     0.29862585E-007     0.10000000E+002                7
 RTBSE| Simulation step         Convergence     Electron number  ETRS Iterations
 RTBSE|             534     0.24979424E-007     0.10000000E+002                7
 RTBSE| Simulation step         Convergence     Electron number  ETRS Iterations
 RTBSE|             535     0.19924313E-007     0.10000000E+002                7
 RTBSE| Simulation step         Convergence     Electron number  ETRS Iterations
 RTBSE|             536     0.16029671E-007     0.10000000E+002                7
 RTBSE| Simulation step         Convergence     Electron number  ETRS Iterations
 RTBSE|             537     0.13406160E-007     0.10000000E+002                7
 RTBSE| Simulation step         Convergence     Electron number  ETRS Iterations
 RTBSE|             538     0.78833180E-007     0.10000000E+002                6
 RTBSE| Simulation step         Convergence     Electron number  ETRS Iterations
 RTBSE|             539     0.55208631E-007     0.10000000E+002                6
 RTBSE| Simulation step         Convergence     Electron number  ETRS Iterations
 RTBSE|             540     0.33724871E-007     0.10000000E+002                6
 RTBSE| Simulation step         Convergence     Electron number  ETRS Iterations
 RTBSE|             541     0.40027230E-007     0.10000000E+002                6
 RTBSE| Simulation step         Convergence     Electron number  ETRS Iterations
 RTBSE|             542     0.52844499E-007     0.10000000E+002                6
 RTBSE| Simulation step         Convergence     Electron number  ETRS Iterations
 RTBSE|             543     0.64414335E-007     0.10000000E+002                6
 RTBSE| Simulation step         Convergence     Electron number  ETRS Iterations
 RTBSE|             544     0.74115099E-007     0.10000000E+002                6
 RTBSE| Simulation step         Convergence     Electron number  ETRS Iterations
 RTBSE|             545     0.81999429E-007     0.10000000E+002                6
 RTBSE| Simulation step         Convergence     Electron number  ETRS Iterations
 RTBSE|             546     0.88273137E-007     0.10000000E+002                6
 RTBSE| Simulation step         Convergence     Electron number  ETRS Iterations
 RTBSE|             547     0.93237504E-007     0.10000000E+002                6
 RTBSE| Simulation step         Convergence     Electron number  ETRS Iterations
 RTBSE|             548     0.97174526E-007     0.10000000E+002                6
 RTBSE| Simulation step         Convergence     Electron number  ETRS Iterations
 RTBSE|             549     0.16109559E-007     0.10000000E+002                7
 RTBSE| Simulation step         Convergence     Electron number  ETRS Iterations
 RTBSE|             550     0.16712717E-007     0.10000000E+002                7
 RTBSE| Simulation step         Convergence     Electron number  ETRS Iterations
 RTBSE|             551     0.17277100E-007     0.10000000E+002                7
 RTBSE| Simulation step         Convergence     Electron number  ETRS Iterations
 RTBSE|             552     0.17819033E-007     0.10000000E+002                7
 RTBSE| Simulation step         Convergence     Electron number  ETRS Iterations
 RTBSE|             553     0.18358854E-007     0.10000000E+002                7
 RTBSE| Simulation step         Convergence     Electron number  ETRS Iterations
 RTBSE|             554     0.18856071E-007     0.10000000E+002                7
 RTBSE| Simulation step         Convergence     Electron number  ETRS Iterations
 RTBSE|             555     0.19333884E-007     0.10000000E+002                7
 RTBSE| Simulation step         Convergence     Electron number  ETRS Iterations
 RTBSE|             556     0.19731680E-007     0.10000000E+002                7
 RTBSE| Simulation step         Convergence     Electron number  ETRS Iterations
 RTBSE|             557     0.20025064E-007     0.10000000E+002                7
 RTBSE| Simulation step         Convergence     Electron number  ETRS Iterations
 RTBSE|             558     0.20127420E-007     0.10000000E+002                7
 RTBSE| Simulation step         Convergence     Electron number  ETRS Iterations
 RTBSE|             559     0.19952068E-007     0.10000000E+002                7
 RTBSE| Simulation step         Convergence     Electron number  ETRS Iterations
 RTBSE|             560     0.19418934E-007     0.10000000E+002                7
 RTBSE| Simulation step         Convergence     Electron number  ETRS Iterations
 RTBSE|             561     0.18445036E-007     0.10000000E+002                7
 RTBSE| Simulation step         Convergence     Electron number  ETRS Iterations
 RTBSE|             562     0.16973411E-007     0.10000000E+002                7
 RTBSE| Simulation step         Convergence     Electron number  ETRS Iterations
 RTBSE|             563     0.15357779E-007     0.10000000E+002                7
 RTBSE| Simulation step         Convergence     Electron number  ETRS Iterations
 RTBSE|             564     0.14149458E-007     0.10000000E+002                7
 RTBSE| Simulation step         Convergence     Electron number  ETRS Iterations
 RTBSE|             565     0.12547930E-007     0.10000000E+002                7
 RTBSE| Simulation step         Convergence     Electron number  ETRS Iterations
 RTBSE|             566     0.85121383E-007     0.10000000E+002                6
 RTBSE| Simulation step         Convergence     Electron number  ETRS Iterations
 RTBSE|             567     0.61220702E-007     0.10000000E+002                6
 RTBSE| Simulation step         Convergence     Electron number  ETRS Iterations
 RTBSE|             568     0.63878713E-007     0.10000000E+002                6
 RTBSE| Simulation step         Convergence     Electron number  ETRS Iterations
 RTBSE|             569     0.93377966E-007     0.10000000E+002                6
 RTBSE| Simulation step         Convergence     Electron number  ETRS Iterations
 RTBSE|             570     0.20908838E-007     0.10000000E+002                7
 RTBSE| Simulation step         Convergence     Electron number  ETRS Iterations
 RTBSE|             571     0.27524204E-007     0.10000000E+002                7
 RTBSE| Simulation step         Convergence     Electron number  ETRS Iterations
 RTBSE|             572     0.33757860E-007     0.10000000E+002                7
 RTBSE| Simulation step         Convergence     Electron number  ETRS Iterations
 RTBSE|             573     0.39322800E-007     0.10000000E+002                7
 RTBSE| Simulation step         Convergence     Electron number  ETRS Iterations
 RTBSE|             574     0.44027862E-007     0.10000000E+002                7
 RTBSE| Simulation step         Convergence     Electron number  ETRS Iterations
 RTBSE|             575     0.47688512E-007     0.10000000E+002                7
 RTBSE| Simulation step         Convergence     Electron number  ETRS Iterations
 RTBSE|             576     0.50214534E-007     0.10000000E+002                7
 RTBSE| Simulation step         Convergence     Electron number  ETRS Iterations
 RTBSE|             577     0.51579577E-007     0.10000000E+002                7
 RTBSE| Simulation step         Convergence     Electron number  ETRS Iterations
 RTBSE|             578     0.51796772E-007     0.10000000E+002                7
 RTBSE| Simulation step         Convergence     Electron number  ETRS Iterations
 RTBSE|             579     0.50901607E-007     0.10000000E+002                7
 RTBSE| Simulation step         Convergence     Electron number  ETRS Iterations
 RTBSE|             580     0.48969333E-007     0.10000000E+002                7
 RTBSE| Simulation step         Convergence     Electron number  ETRS Iterations
 RTBSE|             581     0.46033822E-007     0.10000000E+002                7
 RTBSE| Simulation step         Convergence     Electron number  ETRS Iterations
 RTBSE|             582     0.42249722E-007     0.10000000E+002                7
 RTBSE| Simulation step         Convergence     Electron number  ETRS Iterations
 RTBSE|             583     0.37752160E-007     0.10000000E+002                7
 RTBSE| Simulation step         Convergence     Electron number  ETRS Iterations
 RTBSE|             584     0.32712175E-007     0.10000000E+002                7
 RTBSE| Simulation step         Convergence     Electron number  ETRS Iterations
 RTBSE|             585     0.27367539E-007     0.10000000E+002                7
 RTBSE| Simulation step         Convergence     Electron number  ETRS Iterations
 RTBSE|             586     0.21952299E-007     0.10000000E+002                7
 RTBSE| Simulation step         Convergence     Electron number  ETRS Iterations
 RTBSE|             587     0.16952415E-007     0.10000000E+002                7
 RTBSE| Simulation step         Convergence     Electron number  ETRS Iterations
 RTBSE|             588     0.14279535E-007     0.10000000E+002                7
 RTBSE| Simulation step         Convergence     Electron number  ETRS Iterations
 RTBSE|             589     0.86294051E-007     0.10000000E+002                6
 RTBSE| Simulation step         Convergence     Electron number  ETRS Iterations
 RTBSE|             590     0.63098682E-007     0.10000000E+002                6
 RTBSE| Simulation step         Convergence     Electron number  ETRS Iterations
 RTBSE|             591     0.42461233E-007     0.10000000E+002                6
 RTBSE| Simulation step         Convergence     Electron number  ETRS Iterations
 RTBSE|             592     0.29303000E-007     0.10000000E+002                6
 RTBSE| Simulation step         Convergence     Electron number  ETRS Iterations
 RTBSE|             593     0.39885375E-007     0.10000000E+002                6
 RTBSE| Simulation step         Convergence     Electron number  ETRS Iterations
 RTBSE|             594     0.50628393E-007     0.10000000E+002                6
 RTBSE| Simulation step         Convergence     Electron number  ETRS Iterations
 RTBSE|             595     0.60431915E-007     0.10000000E+002                6
 RTBSE| Simulation step         Convergence     Electron number  ETRS Iterations
 RTBSE|             596     0.69139344E-007     0.10000000E+002                6
 RTBSE| Simulation step         Convergence     Electron number  ETRS Iterations
 RTBSE|             597     0.76834912E-007     0.10000000E+002                6
 RTBSE| Simulation step         Convergence     Electron number  ETRS Iterations
 RTBSE|             598     0.83681684E-007     0.10000000E+002                6
 RTBSE| Simulation step         Convergence     Electron number  ETRS Iterations
 RTBSE|             599     0.89762659E-007     0.10000000E+002                6
 RTBSE| Simulation step         Convergence     Electron number  ETRS Iterations
 RTBSE|             600     0.95245783E-007     0.10000000E+002                6
 RTBSE| Simulation step         Convergence     Electron number  ETRS Iterations
 RTBSE|             601     0.15996582E-007     0.10000000E+002                7
 RTBSE| Simulation step         Convergence     Electron number  ETRS Iterations
 RTBSE|             602     0.16928602E-007     0.10000000E+002                7
 RTBSE| Simulation step         Convergence     Electron number  ETRS Iterations
 RTBSE|             603     0.17811207E-007     0.10000000E+002                7
 RTBSE| Simulation step         Convergence     Electron number  ETRS Iterations
 RTBSE|             604     0.18644689E-007     0.10000000E+002                7
 RTBSE| Simulation step         Convergence     Electron number  ETRS Iterations
 RTBSE|             605     0.19410426E-007     0.10000000E+002                7
 RTBSE| Simulation step         Convergence     Electron number  ETRS Iterations
 RTBSE|             606     0.20108080E-007     0.10000000E+002                7
 RTBSE| Simulation step         Convergence     Electron number  ETRS Iterations
 RTBSE|             607     0.20714999E-007     0.10000000E+002                7
 RTBSE| Simulation step         Convergence     Electron number  ETRS Iterations
 RTBSE|             608     0.21200089E-007     0.10000000E+002                7
 RTBSE| Simulation step         Convergence     Electron number  ETRS Iterations
 RTBSE|             609     0.21498250E-007     0.10000000E+002                7
 RTBSE| Simulation step         Convergence     Electron number  ETRS Iterations
 RTBSE|             610     0.21548739E-007     0.10000000E+002                7
 RTBSE| Simulation step         Convergence     Electron number  ETRS Iterations
 RTBSE|             611     0.21273555E-007     0.10000000E+002                7
 RTBSE| Simulation step         Convergence     Electron number  ETRS Iterations
 RTBSE|             612     0.20541133E-007     0.10000000E+002                7
 RTBSE| Simulation step         Convergence     Electron number  ETRS Iterations
 RTBSE|             613     0.19264548E-007     0.10000000E+002                7
 RTBSE| Simulation step         Convergence     Electron number  ETRS Iterations
 RTBSE|             614     0.17348217E-007     0.10000000E+002                7
 RTBSE| Simulation step         Convergence     Electron number  ETRS Iterations
 RTBSE|             615     0.16078529E-007     0.10000000E+002                7
 RTBSE| Simulation step         Convergence     Electron number  ETRS Iterations
 RTBSE|             616     0.14510346E-007     0.10000000E+002                7
 RTBSE| Simulation step         Convergence     Electron number  ETRS Iterations
 RTBSE|             617     0.12442936E-007     0.10000000E+002                7
 RTBSE| Simulation step         Convergence     Electron number  ETRS Iterations
 RTBSE|             618     0.78588965E-007     0.10000000E+002                6
 RTBSE| Simulation step         Convergence     Electron number  ETRS Iterations
 RTBSE|             619     0.53045515E-007     0.10000000E+002                6
 RTBSE| Simulation step         Convergence     Electron number  ETRS Iterations
 RTBSE|             620     0.81116926E-007     0.10000000E+002                6
 RTBSE| Simulation step         Convergence     Electron number  ETRS Iterations
 RTBSE|             621     0.18626407E-007     0.10000000E+002                7
 RTBSE| Simulation step         Convergence     Electron number  ETRS Iterations
 RTBSE|             622     0.25820635E-007     0.10000000E+002                7
 RTBSE| Simulation step         Convergence     Electron number  ETRS Iterations
 RTBSE|             623     0.32733298E-007     0.10000000E+002                7
 RTBSE| Simulation step         Convergence     Electron number  ETRS Iterations
 RTBSE|             624     0.39036605E-007     0.10000000E+002                7
 RTBSE| Simulation step         Convergence     Electron number  ETRS Iterations
 RTBSE|             625     0.44387915E-007     0.10000000E+002                7
 RTBSE| Simulation step         Convergence     Electron number  ETRS Iterations
 RTBSE|             626     0.48598551E-007     0.10000000E+002                7
 RTBSE| Simulation step         Convergence     Electron number  ETRS Iterations
 RTBSE|             627     0.51509796E-007     0.10000000E+002                7
 RTBSE| Simulation step         Convergence     Electron number  ETRS Iterations
 RTBSE|             628     0.53082364E-007     0.10000000E+002                7
 RTBSE| Simulation step         Convergence     Electron number  ETRS Iterations
 RTBSE|             629     0.53297678E-007     0.10000000E+002                7
 RTBSE| Simulation step         Convergence     Electron number  ETRS Iterations
 RTBSE|             630     0.52268919E-007     0.10000000E+002                7
 RTBSE| Simulation step         Convergence     Electron number  ETRS Iterations
 RTBSE|             631     0.50100964E-007     0.10000000E+002                7
 RTBSE| Simulation step         Convergence     Electron number  ETRS Iterations
 RTBSE|             632     0.46947186E-007     0.10000000E+002                7
 RTBSE| Simulation step         Convergence     Electron number  ETRS Iterations
 RTBSE|             633     0.42953157E-007     0.10000000E+002                7
 RTBSE| Simulation step         Convergence     Electron number  ETRS Iterations
 RTBSE|             634     0.38386512E-007     0.10000000E+002                7
 RTBSE| Simulation step         Convergence     Electron number  ETRS Iterations
 RTBSE|             635     0.33442274E-007     0.10000000E+002                7
 RTBSE| Simulation step         Convergence     Electron number  ETRS Iterations
 RTBSE|             636     0.28373201E-007     0.10000000E+002                7
 RTBSE| Simulation step         Convergence     Electron number  ETRS Iterations
 RTBSE|             637     0.23394103E-007     0.10000000E+002                7
 RTBSE| Simulation step         Convergence     Electron number  ETRS Iterations
 RTBSE|             638     0.18687997E-007     0.10000000E+002                7
 RTBSE| Simulation step         Convergence     Electron number  ETRS Iterations
 RTBSE|             639     0.15033093E-007     0.10000000E+002                7
 RTBSE| Simulation step         Convergence     Electron number  ETRS Iterations
 RTBSE|             640     0.97610222E-007     0.10000000E+002                6
 RTBSE| Simulation step         Convergence     Electron number  ETRS Iterations
 RTBSE|             641     0.77581335E-007     0.10000000E+002                6
 RTBSE| Simulation step         Convergence     Electron number  ETRS Iterations
 RTBSE|             642     0.60497763E-007     0.10000000E+002                6
 RTBSE| Simulation step         Convergence     Electron number  ETRS Iterations
 RTBSE|             643     0.45186236E-007     0.10000000E+002                6
 RTBSE| Simulation step         Convergence     Electron number  ETRS Iterations
 RTBSE|             644     0.30640197E-007     0.10000000E+002                6
 RTBSE| Simulation step         Convergence     Electron number  ETRS Iterations
 RTBSE|             645     0.30330662E-007     0.10000000E+002                6
 RTBSE| Simulation step         Convergence     Electron number  ETRS Iterations
 RTBSE|             646     0.40987265E-007     0.10000000E+002                6
 RTBSE| Simulation step         Convergence     Electron number  ETRS Iterations
 RTBSE|             647     0.52253179E-007     0.10000000E+002                6
 RTBSE| Simulation step         Convergence     Electron number  ETRS Iterations
 RTBSE|             648     0.63425260E-007     0.10000000E+002                6
 RTBSE| Simulation step         Convergence     Electron number  ETRS Iterations
 RTBSE|             649     0.74161176E-007     0.10000000E+002                6
 RTBSE| Simulation step         Convergence     Electron number  ETRS Iterations
 RTBSE|             650     0.84269352E-007     0.10000000E+002                6
 RTBSE| Simulation step         Convergence     Electron number  ETRS Iterations
 RTBSE|             651     0.93481483E-007     0.10000000E+002                6
 RTBSE| Simulation step         Convergence     Electron number  ETRS Iterations
 RTBSE|             652     0.15957699E-007     0.10000000E+002                7
 RTBSE| Simulation step         Convergence     Electron number  ETRS Iterations
 RTBSE|             653     0.17320655E-007     0.10000000E+002                7
 RTBSE| Simulation step         Convergence     Electron number  ETRS Iterations
 RTBSE|             654     0.18510002E-007     0.10000000E+002                7
 RTBSE| Simulation step         Convergence     Electron number  ETRS Iterations
 RTBSE|             655     0.19502333E-007     0.10000000E+002                7
 RTBSE| Simulation step         Convergence     Electron number  ETRS Iterations
 RTBSE|             656     0.20340908E-007     0.10000000E+002                7
 RTBSE| Simulation step         Convergence     Electron number  ETRS Iterations
 RTBSE|             657     0.20991017E-007     0.10000000E+002                7
 RTBSE| Simulation step         Convergence     Electron number  ETRS Iterations
 RTBSE|             658     0.21507217E-007     0.10000000E+002                7
 RTBSE| Simulation step         Convergence     Electron number  ETRS Iterations
 RTBSE|             659     0.21850708E-007     0.10000000E+002                7
 RTBSE| Simulation step         Convergence     Electron number  ETRS Iterations
 RTBSE|             660     0.22051972E-007     0.10000000E+002                7
 RTBSE| Simulation step         Convergence     Electron number  ETRS Iterations
 RTBSE|             661     0.22028835E-007     0.10000000E+002                7
 RTBSE| Simulation step         Convergence     Electron number  ETRS Iterations
 RTBSE|             662     0.21747748E-007     0.10000000E+002                7
 RTBSE| Simulation step         Convergence     Electron number  ETRS Iterations
 RTBSE|             663     0.21146752E-007     0.10000000E+002                7
 RTBSE| Simulation step         Convergence     Electron number  ETRS Iterations
 RTBSE|             664     0.20085547E-007     0.10000000E+002                7
 RTBSE| Simulation step         Convergence     Electron number  ETRS Iterations
 RTBSE|             665     0.18501149E-007     0.10000000E+002                7
 RTBSE| Simulation step         Convergence     Electron number  ETRS Iterations
 RTBSE|             666     0.16920213E-007     0.10000000E+002                7
 RTBSE| Simulation step         Convergence     Electron number  ETRS Iterations
 RTBSE|             667     0.15628779E-007     0.10000000E+002                7
 RTBSE| Simulation step         Convergence     Electron number  ETRS Iterations
 RTBSE|             668     0.13800603E-007     0.10000000E+002                7
 RTBSE| Simulation step         Convergence     Electron number  ETRS Iterations
 RTBSE|             669     0.91626686E-007     0.10000000E+002                6
 RTBSE| Simulation step         Convergence     Electron number  ETRS Iterations
 RTBSE|             670     0.65395362E-007     0.10000000E+002                6
 RTBSE| Simulation step         Convergence     Electron number  ETRS Iterations
 RTBSE|             671     0.66418592E-007     0.10000000E+002                6
 RTBSE| Simulation step         Convergence     Electron number  ETRS Iterations
 RTBSE|             672     0.99164041E-007     0.10000000E+002                6
 RTBSE| Simulation step         Convergence     Electron number  ETRS Iterations
 RTBSE|             673     0.23185731E-007     0.10000000E+002                7
 RTBSE| Simulation step         Convergence     Electron number  ETRS Iterations
 RTBSE|             674     0.30643891E-007     0.10000000E+002                7
 RTBSE| Simulation step         Convergence     Electron number  ETRS Iterations
 RTBSE|             675     0.37472156E-007     0.10000000E+002                7
 RTBSE| Simulation step         Convergence     Electron number  ETRS Iterations
 RTBSE|             676     0.43325623E-007     0.10000000E+002                7
 RTBSE| Simulation step         Convergence     Electron number  ETRS Iterations
 RTBSE|             677     0.47855562E-007     0.10000000E+002                7
 RTBSE| Simulation step         Convergence     Electron number  ETRS Iterations
 RTBSE|             678     0.50851616E-007     0.10000000E+002                7
 RTBSE| Simulation step         Convergence     Electron number  ETRS Iterations
 RTBSE|             679     0.52277029E-007     0.10000000E+002                7
 RTBSE| Simulation step         Convergence     Electron number  ETRS Iterations
 RTBSE|             680     0.52205474E-007     0.10000000E+002                7
 RTBSE| Simulation step         Convergence     Electron number  ETRS Iterations
 RTBSE|             681     0.50806102E-007     0.10000000E+002                7
 RTBSE| Simulation step         Convergence     Electron number  ETRS Iterations
 RTBSE|             682     0.48327201E-007     0.10000000E+002                7
 RTBSE| Simulation step         Convergence     Electron number  ETRS Iterations
 RTBSE|             683     0.45046202E-007     0.10000000E+002                7
 RTBSE| Simulation step         Convergence     Electron number  ETRS Iterations
 RTBSE|             684     0.41209855E-007     0.10000000E+002                7
 RTBSE| Simulation step         Convergence     Electron number  ETRS Iterations
 RTBSE|             685     0.37054111E-007     0.10000000E+002                7
 RTBSE| Simulation step         Convergence     Electron number  ETRS Iterations
 RTBSE|             686     0.32818883E-007     0.10000000E+002                7
 RTBSE| Simulation step         Convergence     Electron number  ETRS Iterations
 RTBSE|             687     0.28692514E-007     0.10000000E+002                7
 RTBSE| Simulation step         Convergence     Electron number  ETRS Iterations
 RTBSE|             688     0.24789044E-007     0.10000000E+002                7
 RTBSE| Simulation step         Convergence     Electron number  ETRS Iterations
 RTBSE|             689     0.21181121E-007     0.10000000E+002                7
 RTBSE| Simulation step         Convergence     Electron number  ETRS Iterations
 RTBSE|             690     0.17867429E-007     0.10000000E+002                7
 RTBSE| Simulation step         Convergence     Electron number  ETRS Iterations
 RTBSE|             691     0.14895666E-007     0.10000000E+002                7
 RTBSE| Simulation step         Convergence     Electron number  ETRS Iterations
 RTBSE|             692     0.99416316E-007     0.10000000E+002                6
 RTBSE| Simulation step         Convergence     Electron number  ETRS Iterations
 RTBSE|             693     0.86565106E-007     0.10000000E+002                6
 RTBSE| Simulation step         Convergence     Electron number  ETRS Iterations
 RTBSE|             694     0.74382972E-007     0.10000000E+002                6
 RTBSE| Simulation step         Convergence     Electron number  ETRS Iterations
 RTBSE|             695     0.61039456E-007     0.10000000E+002                6
 RTBSE| Simulation step         Convergence     Electron number  ETRS Iterations
 RTBSE|             696     0.46409884E-007     0.10000000E+002                6
 RTBSE| Simulation step         Convergence     Electron number  ETRS Iterations
 RTBSE|             697     0.30472416E-007     0.10000000E+002                6
 RTBSE| Simulation step         Convergence     Electron number  ETRS Iterations
 RTBSE|             698     0.38086204E-007     0.10000000E+002                6
 RTBSE| Simulation step         Convergence     Electron number  ETRS Iterations
 RTBSE|             699     0.53720541E-007     0.10000000E+002                6
 RTBSE| Simulation step         Convergence     Electron number  ETRS Iterations
 RTBSE|             700     0.69657283E-007     0.10000000E+002                6
 RTBSE| Simulation step         Convergence     Electron number  ETRS Iterations
 RTBSE|             701     0.84616601E-007     0.10000000E+002                6
 RTBSE| Simulation step         Convergence     Electron number  ETRS Iterations
 RTBSE|             702     0.97798962E-007     0.10000000E+002                6
 RTBSE| Simulation step         Convergence     Electron number  ETRS Iterations
 RTBSE|             703     0.16936043E-007     0.10000000E+002                7
 RTBSE| Simulation step         Convergence     Electron number  ETRS Iterations
 RTBSE|             704     0.18605359E-007     0.10000000E+002                7
 RTBSE| Simulation step         Convergence     Electron number  ETRS Iterations
 RTBSE|             705     0.19851302E-007     0.10000000E+002                7
 RTBSE| Simulation step         Convergence     Electron number  ETRS Iterations
 RTBSE|             706     0.20695605E-007     0.10000000E+002                7
 RTBSE| Simulation step         Convergence     Electron number  ETRS Iterations
 RTBSE|             707     0.21175416E-007     0.10000000E+002                7
 RTBSE| Simulation step         Convergence     Electron number  ETRS Iterations
 RTBSE|             708     0.21348717E-007     0.10000000E+002                7
 RTBSE| Simulation step         Convergence     Electron number  ETRS Iterations
 RTBSE|             709     0.21315369E-007     0.10000000E+002                7
 RTBSE| Simulation step         Convergence     Electron number  ETRS Iterations
 RTBSE|             710     0.21154057E-007     0.10000000E+002                7
 RTBSE| Simulation step         Convergence     Electron number  ETRS Iterations
 RTBSE|             711     0.20907756E-007     0.10000000E+002                7
 RTBSE| Simulation step         Convergence     Electron number  ETRS Iterations
 RTBSE|             712     0.20624693E-007     0.10000000E+002                7
 RTBSE| Simulation step         Convergence     Electron number  ETRS Iterations
 RTBSE|             713     0.20272604E-007     0.10000000E+002                7
 RTBSE| Simulation step         Convergence     Electron number  ETRS Iterations
 RTBSE|             714     0.19814709E-007     0.10000000E+002                7
 RTBSE| Simulation step         Convergence     Electron number  ETRS Iterations
 RTBSE|             715     0.19153225E-007     0.10000000E+002                7
 RTBSE| Simulation step         Convergence     Electron number  ETRS Iterations
 RTBSE|             716     0.18153935E-007     0.10000000E+002                7
 RTBSE| Simulation step         Convergence     Electron number  ETRS Iterations
 RTBSE|             717     0.16648773E-007     0.10000000E+002                7
 RTBSE| Simulation step         Convergence     Electron number  ETRS Iterations
 RTBSE|             718     0.15821109E-007     0.10000000E+002                7
 RTBSE| Simulation step         Convergence     Electron number  ETRS Iterations
 RTBSE|             719     0.14573625E-007     0.10000000E+002                7
 RTBSE| Simulation step         Convergence     Electron number  ETRS Iterations
 RTBSE|             720     0.12695106E-007     0.10000000E+002                7
 RTBSE| Simulation step         Convergence     Electron number  ETRS Iterations
 RTBSE|             721     0.79265387E-007     0.10000000E+002                6
 RTBSE| Simulation step         Convergence     Electron number  ETRS Iterations
 RTBSE|             722     0.50421328E-007     0.10000000E+002                6
 RTBSE| Simulation step         Convergence     Electron number  ETRS Iterations
 RTBSE|             723     0.79243420E-007     0.10000000E+002                6
 RTBSE| Simulation step         Convergence     Electron number  ETRS Iterations
 RTBSE|             724     0.19202000E-007     0.10000000E+002                7
 RTBSE| Simulation step         Convergence     Electron number  ETRS Iterations
 RTBSE|             725     0.26833200E-007     0.10000000E+002                7
 RTBSE| Simulation step         Convergence     Electron number  ETRS Iterations
 RTBSE|             726     0.33939719E-007     0.10000000E+002                7
 RTBSE| Simulation step         Convergence     Electron number  ETRS Iterations
 RTBSE|             727     0.40021651E-007     0.10000000E+002                7
 RTBSE| Simulation step         Convergence     Electron number  ETRS Iterations
 RTBSE|             728     0.44681544E-007     0.10000000E+002                7
 RTBSE| Simulation step         Convergence     Electron number  ETRS Iterations
 RTBSE|             729     0.47729763E-007     0.10000000E+002                7
 RTBSE| Simulation step         Convergence     Electron number  ETRS Iterations
 RTBSE|             730     0.49120854E-007     0.10000000E+002                7
 RTBSE| Simulation step         Convergence     Electron number  ETRS Iterations
 RTBSE|             731     0.49001826E-007     0.10000000E+002                7
 RTBSE| Simulation step         Convergence     Electron number  ETRS Iterations
 RTBSE|             732     0.47642208E-007     0.10000000E+002                7
 RTBSE| Simulation step         Convergence     Electron number  ETRS Iterations
 RTBSE|             733     0.45318113E-007     0.10000000E+002                7
 RTBSE| Simulation step         Convergence     Electron number  ETRS Iterations
 RTBSE|             734     0.42377580E-007     0.10000000E+002                7
 RTBSE| Simulation step         Convergence     Electron number  ETRS Iterations
 RTBSE|             735     0.39101902E-007     0.10000000E+002                7
 RTBSE| Simulation step         Convergence     Electron number  ETRS Iterations
 RTBSE|             736     0.35737669E-007     0.10000000E+002                7
 RTBSE| Simulation step         Convergence     Electron number  ETRS Iterations
 RTBSE|             737     0.32467667E-007     0.10000000E+002                7
 RTBSE| Simulation step         Convergence     Electron number  ETRS Iterations
 RTBSE|             738     0.29425378E-007     0.10000000E+002                7
 RTBSE| Simulation step         Convergence     Electron number  ETRS Iterations
 RTBSE|             739     0.26652682E-007     0.10000000E+002                7
 RTBSE| Simulation step         Convergence     Electron number  ETRS Iterations
 RTBSE|             740     0.24146627E-007     0.10000000E+002                7
 RTBSE| Simulation step         Convergence     Electron number  ETRS Iterations
 RTBSE|             741     0.21812666E-007     0.10000000E+002                7
 RTBSE| Simulation step         Convergence     Electron number  ETRS Iterations
 RTBSE|             742     0.19536757E-007     0.10000000E+002                7
 RTBSE| Simulation step         Convergence     Electron number  ETRS Iterations
 RTBSE|             743     0.17634254E-007     0.10000000E+002                7
 RTBSE| Simulation step         Convergence     Electron number  ETRS Iterations
 RTBSE|             744     0.15669666E-007     0.10000000E+002                7
 RTBSE| Simulation step         Convergence     Electron number  ETRS Iterations
 RTBSE|             745     0.14184268E-007     0.10000000E+002                7
 RTBSE| Simulation step         Convergence     Electron number  ETRS Iterations
 RTBSE|             746     0.90954278E-007     0.10000000E+002                6
 RTBSE| Simulation step         Convergence     Electron number  ETRS Iterations
 RTBSE|             747     0.74767755E-007     0.10000000E+002                6
 RTBSE| Simulation step         Convergence     Electron number  ETRS Iterations
 RTBSE|             748     0.55459616E-007     0.10000000E+002                6
 RTBSE| Simulation step         Convergence     Electron number  ETRS Iterations
 RTBSE|             749     0.33640733E-007     0.10000000E+002                6
 RTBSE| Simulation step         Convergence     Electron number  ETRS Iterations
 RTBSE|             750     0.47255527E-007     0.10000000E+002                6
 RTBSE| Simulation step         Convergence     Electron number  ETRS Iterations
 RTBSE|             751     0.67476286E-007     0.10000000E+002                6
 RTBSE| Simulation step         Convergence     Electron number  ETRS Iterations
 RTBSE|             752     0.86553129E-007     0.10000000E+002                6
 RTBSE| Simulation step         Convergence     Electron number  ETRS Iterations
 RTBSE|             753     0.15524635E-007     0.10000000E+002                7
 RTBSE| Simulation step         Convergence     Electron number  ETRS Iterations
 RTBSE|             754     0.17958094E-007     0.10000000E+002                7
 RTBSE| Simulation step         Convergence     Electron number  ETRS Iterations
 RTBSE|             755     0.19726117E-007     0.10000000E+002                7
 RTBSE| Simulation step         Convergence     Electron number  ETRS Iterations
 RTBSE|             756     0.20793596E-007     0.10000000E+002                7
 RTBSE| Simulation step         Convergence     Electron number  ETRS Iterations
 RTBSE|             757     0.21220773E-007     0.10000000E+002                7
 RTBSE| Simulation step         Convergence     Electron number  ETRS Iterations
 RTBSE|             758     0.21123233E-007     0.10000000E+002                7
 RTBSE| Simulation step         Convergence     Electron number  ETRS Iterations
 RTBSE|             759     0.20631636E-007     0.10000000E+002                7
 RTBSE| Simulation step         Convergence     Electron number  ETRS Iterations
 RTBSE|             760     0.19907095E-007     0.10000000E+002                7
 RTBSE| Simulation step         Convergence     Electron number  ETRS Iterations
 RTBSE|             761     0.19116635E-007     0.10000000E+002                7
 RTBSE| Simulation step         Convergence     Electron number  ETRS Iterations
 RTBSE|             762     0.18423595E-007     0.10000000E+002                7
 RTBSE| Simulation step         Convergence     Electron number  ETRS Iterations
 RTBSE|             763     0.17930576E-007     0.10000000E+002                7
 RTBSE| Simulation step         Convergence     Electron number  ETRS Iterations
 RTBSE|             764     0.17653293E-007     0.10000000E+002                7
 RTBSE| Simulation step         Convergence     Electron number  ETRS Iterations
 RTBSE|             765     0.17565879E-007     0.10000000E+002                7
 RTBSE| Simulation step         Convergence     Electron number  ETRS Iterations
 RTBSE|             766     0.17538674E-007     0.10000000E+002                7
 RTBSE| Simulation step         Convergence     Electron number  ETRS Iterations
 RTBSE|             767     0.17388538E-007     0.10000000E+002                7
 RTBSE| Simulation step         Convergence     Electron number  ETRS Iterations
 RTBSE|             768     0.16909023E-007     0.10000000E+002                7
 RTBSE| Simulation step         Convergence     Electron number  ETRS Iterations
 RTBSE|             769     0.15835966E-007     0.10000000E+002                7
 RTBSE| Simulation step         Convergence     Electron number  ETRS Iterations
 RTBSE|             770     0.15345887E-007     0.10000000E+002                7
 RTBSE| Simulation step         Convergence     Electron number  ETRS Iterations
 RTBSE|             771     0.14211891E-007     0.10000000E+002                7
 RTBSE| Simulation step         Convergence     Electron number  ETRS Iterations
 RTBSE|             772     0.97007731E-007     0.10000000E+002                6
 RTBSE| Simulation step         Convergence     Electron number  ETRS Iterations
 RTBSE|             773     0.73501533E-007     0.10000000E+002                6
 RTBSE| Simulation step         Convergence     Electron number  ETRS Iterations
 RTBSE|             774     0.54421017E-007     0.10000000E+002                6
 RTBSE| Simulation step         Convergence     Electron number  ETRS Iterations
 RTBSE|             775     0.86016580E-007     0.10000000E+002                6
 RTBSE| Simulation step         Convergence     Electron number  ETRS Iterations
 RTBSE|             776     0.20956209E-007     0.10000000E+002                7
 RTBSE| Simulation step         Convergence     Electron number  ETRS Iterations
 RTBSE|             777     0.28433593E-007     0.10000000E+002                7
 RTBSE| Simulation step         Convergence     Electron number  ETRS Iterations
 RTBSE|             778     0.35079849E-007     0.10000000E+002                7
 RTBSE| Simulation step         Convergence     Electron number  ETRS Iterations
 RTBSE|             779     0.40427009E-007     0.10000000E+002                7
 RTBSE| Simulation step         Convergence     Electron number  ETRS Iterations
 RTBSE|             780     0.44177603E-007     0.10000000E+002                7
 RTBSE| Simulation step         Convergence     Electron number  ETRS Iterations
 RTBSE|             781     0.46228940E-007     0.10000000E+002                7
 RTBSE| Simulation step         Convergence     Electron number  ETRS Iterations
 RTBSE|             782     0.46693252E-007     0.10000000E+002                7
 RTBSE| Simulation step         Convergence     Electron number  ETRS Iterations
 RTBSE|             783     0.45800621E-007     0.10000000E+002                7
 RTBSE| Simulation step         Convergence     Electron number  ETRS Iterations
 RTBSE|             784     0.43896902E-007     0.10000000E+002                7
 RTBSE| Simulation step         Convergence     Electron number  ETRS Iterations
 RTBSE|             785     0.41322356E-007     0.10000000E+002                7
 RTBSE| Simulation step         Convergence     Electron number  ETRS Iterations
 RTBSE|             786     0.38417871E-007     0.10000000E+002                7
 RTBSE| Simulation step         Convergence     Electron number  ETRS Iterations
 RTBSE|             787     0.35470388E-007     0.10000000E+002                7
 RTBSE| Simulation step         Convergence     Electron number  ETRS Iterations
 RTBSE|             788     0.32684661E-007     0.10000000E+002                7
 RTBSE| Simulation step         Convergence     Electron number  ETRS Iterations
 RTBSE|             789     0.30225370E-007     0.10000000E+002                7
 RTBSE| Simulation step         Convergence     Electron number  ETRS Iterations
 RTBSE|             790     0.28147016E-007     0.10000000E+002                7
 RTBSE| Simulation step         Convergence     Electron number  ETRS Iterations
 RTBSE|             791     0.26390812E-007     0.10000000E+002                7
 RTBSE| Simulation step         Convergence     Electron number  ETRS Iterations
 RTBSE|             792     0.24779961E-007     0.10000000E+002                7
 RTBSE| Simulation step         Convergence     Electron number  ETRS Iterations
 RTBSE|             793     0.23117315E-007     0.10000000E+002                7
 RTBSE| Simulation step         Convergence     Electron number  ETRS Iterations
 RTBSE|             794     0.21373681E-007     0.10000000E+002                7
 RTBSE| Simulation step         Convergence     Electron number  ETRS Iterations
 RTBSE|             795     0.19785771E-007     0.10000000E+002                7
 RTBSE| Simulation step         Convergence     Electron number  ETRS Iterations
 RTBSE|             796     0.17412323E-007     0.10000000E+002                7
 RTBSE| Simulation step         Convergence     Electron number  ETRS Iterations
 RTBSE|             797     0.15458396E-007     0.10000000E+002                7
 RTBSE| Simulation step         Convergence     Electron number  ETRS Iterations
 RTBSE|             798     0.95870978E-007     0.10000000E+002                6
 RTBSE| Simulation step         Convergence     Electron number  ETRS Iterations
 RTBSE|             799     0.74434942E-007     0.10000000E+002                6
 RTBSE| Simulation step         Convergence     Electron number  ETRS Iterations
 RTBSE|             800     0.49577761E-007     0.10000000E+002                6
 RTBSE| Simulation step         Convergence     Electron number  ETRS Iterations
 RTBSE|             801     0.40652371E-007     0.10000000E+002                6
 RTBSE| Simulation step         Convergence     Electron number  ETRS Iterations
 RTBSE|             802     0.62738108E-007     0.10000000E+002                6
 RTBSE| Simulation step         Convergence     Electron number  ETRS Iterations
 RTBSE|             803     0.84205138E-007     0.10000000E+002                6
 RTBSE| Simulation step         Convergence     Electron number  ETRS Iterations
 RTBSE|             804     0.15345823E-007     0.10000000E+002                7
 RTBSE| Simulation step         Convergence     Electron number  ETRS Iterations
 RTBSE|             805     0.17974248E-007     0.10000000E+002                7
 RTBSE| Simulation step         Convergence     Electron number  ETRS Iterations
 RTBSE|             806     0.19734976E-007     0.10000000E+002                7
 RTBSE| Simulation step         Convergence     Electron number  ETRS Iterations
 RTBSE|             807     0.20656928E-007     0.10000000E+002                7
 RTBSE| Simulation step         Convergence     Electron number  ETRS Iterations
 RTBSE|             808     0.20783076E-007     0.10000000E+002                7
 RTBSE| Simulation step         Convergence     Electron number  ETRS Iterations
 RTBSE|             809     0.20227969E-007     0.10000000E+002                7
 RTBSE| Simulation step         Convergence     Electron number  ETRS Iterations
 RTBSE|             810     0.19242035E-007     0.10000000E+002                7
 RTBSE| Simulation step         Convergence     Electron number  ETRS Iterations
 RTBSE|             811     0.18009601E-007     0.10000000E+002                7
 RTBSE| Simulation step         Convergence     Electron number  ETRS Iterations
 RTBSE|             812     0.99159467E-007     0.10000000E+002                6
 RTBSE| Simulation step         Convergence     Electron number  ETRS Iterations
 RTBSE|             813     0.94792006E-007     0.10000000E+002                6
 RTBSE| Simulation step         Convergence     Electron number  ETRS Iterations
 RTBSE|             814     0.92313590E-007     0.10000000E+002                6
 RTBSE| Simulation step         Convergence     Electron number  ETRS Iterations
 RTBSE|             815     0.92403618E-007     0.10000000E+002                6
 RTBSE| Simulation step         Convergence     Electron number  ETRS Iterations
 RTBSE|             816     0.95268833E-007     0.10000000E+002                6
 RTBSE| Simulation step         Convergence     Electron number  ETRS Iterations
 RTBSE|             817     0.15949159E-007     0.10000000E+002                7
 RTBSE| Simulation step         Convergence     Electron number  ETRS Iterations
 RTBSE|             818     0.16623186E-007     0.10000000E+002                7
 RTBSE| Simulation step         Convergence     Electron number  ETRS Iterations
 RTBSE|             819     0.17151785E-007     0.10000000E+002                7
 RTBSE| Simulation step         Convergence     Electron number  ETRS Iterations
 RTBSE|             820     0.17213495E-007     0.10000000E+002                7
 RTBSE| Simulation step         Convergence     Electron number  ETRS Iterations
 RTBSE|             821     0.16499020E-007     0.10000000E+002                7
 RTBSE| Simulation step         Convergence     Electron number  ETRS Iterations
 RTBSE|             822     0.15927706E-007     0.10000000E+002                7
 RTBSE| Simulation step         Convergence     Electron number  ETRS Iterations
 RTBSE|             823     0.14832207E-007     0.10000000E+002                7
 RTBSE| Simulation step         Convergence     Electron number  ETRS Iterations
 RTBSE|             824     0.99698208E-007     0.10000000E+002                6
 RTBSE| Simulation step         Convergence     Electron number  ETRS Iterations
 RTBSE|             825     0.74391840E-007     0.10000000E+002                6
 RTBSE| Simulation step         Convergence     Electron number  ETRS Iterations
 RTBSE|             826     0.57499880E-007     0.10000000E+002                6
 RTBSE| Simulation step         Convergence     Electron number  ETRS Iterations
 RTBSE|             827     0.91926001E-007     0.10000000E+002                6
 RTBSE| Simulation step         Convergence     Electron number  ETRS Iterations
 RTBSE|             828     0.22498215E-007     0.10000000E+002                7
 RTBSE| Simulation step         Convergence     Electron number  ETRS Iterations
 RTBSE|             829     0.30122023E-007     0.10000000E+002                7
 RTBSE| Simulation step         Convergence     Electron number  ETRS Iterations
 RTBSE|             830     0.36608486E-007     0.10000000E+002                7
 RTBSE| Simulation step         Convergence     Electron number  ETRS Iterations
 RTBSE|             831     0.41487841E-007     0.10000000E+002                7
 RTBSE| Simulation step         Convergence     Electron number  ETRS Iterations
 RTBSE|             832     0.44507726E-007     0.10000000E+002                7
 RTBSE| Simulation step         Convergence     Electron number  ETRS Iterations
 RTBSE|             833     0.45690635E-007     0.10000000E+002                7
 RTBSE| Simulation step         Convergence     Electron number  ETRS Iterations
 RTBSE|             834     0.45225823E-007     0.10000000E+002                7
 RTBSE| Simulation step         Convergence     Electron number  ETRS Iterations
 RTBSE|             835     0.43483464E-007     0.10000000E+002                7
 RTBSE| Simulation step         Convergence     Electron number  ETRS Iterations
 RTBSE|             836     0.40901890E-007     0.10000000E+002                7
 RTBSE| Simulation step         Convergence     Electron number  ETRS Iterations
 RTBSE|             837     0.37884637E-007     0.10000000E+002                7
 RTBSE| Simulation step         Convergence     Electron number  ETRS Iterations
 RTBSE|             838     0.34841021E-007     0.10000000E+002                7
 RTBSE| Simulation step         Convergence     Electron number  ETRS Iterations
 RTBSE|             839     0.32090578E-007     0.10000000E+002                7
 RTBSE| Simulation step         Convergence     Electron number  ETRS Iterations
 RTBSE|             840     0.29823464E-007     0.10000000E+002                7
 RTBSE| Simulation step         Convergence     Electron number  ETRS Iterations
 RTBSE|             841     0.28087228E-007     0.10000000E+002                7
 RTBSE| Simulation step         Convergence     Electron number  ETRS Iterations
 RTBSE|             842     0.26823461E-007     0.10000000E+002                7
 RTBSE| Simulation step         Convergence     Electron number  ETRS Iterations
 RTBSE|             843     0.25803543E-007     0.10000000E+002                7
 RTBSE| Simulation step         Convergence     Electron number  ETRS Iterations
 RTBSE|             844     0.24761549E-007     0.10000000E+002                7
 RTBSE| Simulation step         Convergence     Electron number  ETRS Iterations
 RTBSE|             845     0.23412367E-007     0.10000000E+002                7
 RTBSE| Simulation step         Convergence     Electron number  ETRS Iterations
 RTBSE|             846     0.22137147E-007     0.10000000E+002                7
 RTBSE| Simulation step         Convergence     Electron number  ETRS Iterations
 RTBSE|             847     0.20206129E-007     0.10000000E+002                7
 RTBSE| Simulation step         Convergence     Electron number  ETRS Iterations
 RTBSE|             848     0.17287245E-007     0.10000000E+002                7
 RTBSE| Simulation step         Convergence     Electron number  ETRS Iterations
 RTBSE|             849     0.15111378E-007     0.10000000E+002                7
 RTBSE| Simulation step         Convergence     Electron number  ETRS Iterations
 RTBSE|             850     0.89969839E-007     0.10000000E+002                6
 RTBSE| Simulation step         Convergence     Electron number  ETRS Iterations
 RTBSE|             851     0.65452137E-007     0.10000000E+002                6
 RTBSE| Simulation step         Convergence     Electron number  ETRS Iterations
 RTBSE|             852     0.38219376E-007     0.10000000E+002                6
 RTBSE| Simulation step         Convergence     Electron number  ETRS Iterations
 RTBSE|             853     0.49988512E-007     0.10000000E+002                6
 RTBSE| Simulation step         Convergence     Electron number  ETRS Iterations
 RTBSE|             854     0.72392095E-007     0.10000000E+002                6
 RTBSE| Simulation step         Convergence     Electron number  ETRS Iterations
 RTBSE|             855     0.91964699E-007     0.10000000E+002                6
 RTBSE| Simulation step         Convergence     Electron number  ETRS Iterations
 RTBSE|             856     0.16452871E-007     0.10000000E+002                7
 RTBSE| Simulation step         Convergence     Electron number  ETRS Iterations
 RTBSE|             857     0.18450473E-007     0.10000000E+002                7
 RTBSE| Simulation step         Convergence     Electron number  ETRS Iterations
 RTBSE|             858     0.19481303E-007     0.10000000E+002                7
 RTBSE| Simulation step         Convergence     Electron number  ETRS Iterations
 RTBSE|             859     0.19623111E-007     0.10000000E+002                7
 RTBSE| Simulation step         Convergence     Electron number  ETRS Iterations
 RTBSE|             860     0.18992438E-007     0.10000000E+002                7
 RTBSE| Simulation step         Convergence     Electron number  ETRS Iterations
 RTBSE|             861     0.17833694E-007     0.10000000E+002                7
 RTBSE| Simulation step         Convergence     Electron number  ETRS Iterations
 RTBSE|             862     0.94520565E-007     0.10000000E+002                6
 RTBSE| Simulation step         Convergence     Electron number  ETRS Iterations
 RTBSE|             863     0.87231323E-007     0.10000000E+002                6
 RTBSE| Simulation step         Convergence     Electron number  ETRS Iterations
 RTBSE|             864     0.81421363E-007     0.10000000E+002                6
 RTBSE| Simulation step         Convergence     Electron number  ETRS Iterations
 RTBSE|             865     0.77918461E-007     0.10000000E+002                6
 RTBSE| Simulation step         Convergence     Electron number  ETRS Iterations
 RTBSE|             866     0.77799509E-007     0.10000000E+002                6
 RTBSE| Simulation step         Convergence     Electron number  ETRS Iterations
 RTBSE|             867     0.81544842E-007     0.10000000E+002                6
 RTBSE| Simulation step         Convergence     Electron number  ETRS Iterations
 RTBSE|             868     0.88982001E-007     0.10000000E+002                6
 RTBSE| Simulation step         Convergence     Electron number  ETRS Iterations
 RTBSE|             869     0.99736837E-007     0.10000000E+002                6
 RTBSE| Simulation step         Convergence     Electron number  ETRS Iterations
 RTBSE|             870     0.17822506E-007     0.10000000E+002                7
 RTBSE| Simulation step         Convergence     Electron number  ETRS Iterations
 RTBSE|             871     0.18970706E-007     0.10000000E+002                7
 RTBSE| Simulation step         Convergence     Electron number  ETRS Iterations
 RTBSE|             872     0.19435822E-007     0.10000000E+002                7
 RTBSE| Simulation step         Convergence     Electron number  ETRS Iterations
 RTBSE|             873     0.18819371E-007     0.10000000E+002                7
 RTBSE| Simulation step         Convergence     Electron number  ETRS Iterations
 RTBSE|             874     0.17754488E-007     0.10000000E+002                7
 RTBSE| Simulation step         Convergence     Electron number  ETRS Iterations
 RTBSE|             875     0.16342093E-007     0.10000000E+002                7
 RTBSE| Simulation step         Convergence     Electron number  ETRS Iterations
 RTBSE|             876     0.13682935E-007     0.10000000E+002                7
 RTBSE| Simulation step         Convergence     Electron number  ETRS Iterations
 RTBSE|             877     0.74053205E-007     0.10000000E+002                6
 RTBSE| Simulation step         Convergence     Electron number  ETRS Iterations
 RTBSE|             878     0.67534843E-007     0.10000000E+002                6
 RTBSE| Simulation step         Convergence     Electron number  ETRS Iterations
 RTBSE|             879     0.17538393E-007     0.10000000E+002                7
 RTBSE| Simulation step         Convergence     Electron number  ETRS Iterations
 RTBSE|             880     0.26213044E-007     0.10000000E+002                7
 RTBSE| Simulation step         Convergence     Electron number  ETRS Iterations
 RTBSE|             881     0.33803410E-007     0.10000000E+002                7
 RTBSE| Simulation step         Convergence     Electron number  ETRS Iterations
 RTBSE|             882     0.39648951E-007     0.10000000E+002                7
 RTBSE| Simulation step         Convergence     Electron number  ETRS Iterations
 RTBSE|             883     0.43372107E-007     0.10000000E+002                7
 RTBSE| Simulation step         Convergence     Electron number  ETRS Iterations
 RTBSE|             884     0.44906848E-007     0.10000000E+002                7
 RTBSE| Simulation step         Convergence     Electron number  ETRS Iterations
 RTBSE|             885     0.44501678E-007     0.10000000E+002                7
 RTBSE| Simulation step         Convergence     Electron number  ETRS Iterations
 RTBSE|             886     0.42568917E-007     0.10000000E+002                7
 RTBSE| Simulation step         Convergence     Electron number  ETRS Iterations
 RTBSE|             887     0.39669502E-007     0.10000000E+002                7
 RTBSE| Simulation step         Convergence     Electron number  ETRS Iterations
 RTBSE|             888     0.36342967E-007     0.10000000E+002                7
 RTBSE| Simulation step         Convergence     Electron number  ETRS Iterations
 RTBSE|             889     0.33086507E-007     0.10000000E+002                7
 RTBSE| Simulation step         Convergence     Electron number  ETRS Iterations
 RTBSE|             890     0.30245759E-007     0.10000000E+002                7
 RTBSE| Simulation step         Convergence     Electron number  ETRS Iterations
 RTBSE|             891     0.28087077E-007     0.10000000E+002                7
 RTBSE| Simulation step         Convergence     Electron number  ETRS Iterations
 RTBSE|             892     0.26718054E-007     0.10000000E+002                7
 RTBSE| Simulation step         Convergence     Electron number  ETRS Iterations
 RTBSE|             893     0.26027920E-007     0.10000000E+002                7
 RTBSE| Simulation step         Convergence     Electron number  ETRS Iterations
 RTBSE|             894     0.25798107E-007     0.10000000E+002                7
 RTBSE| Simulation step         Convergence     Electron number  ETRS Iterations
 RTBSE|             895     0.25669443E-007     0.10000000E+002                7
 RTBSE| Simulation step         Convergence     Electron number  ETRS Iterations
 RTBSE|             896     0.25262978E-007     0.10000000E+002                7
 RTBSE| Simulation step         Convergence     Electron number  ETRS Iterations
 RTBSE|             897     0.24383890E-007     0.10000000E+002                7
 RTBSE| Simulation step         Convergence     Electron number  ETRS Iterations
 RTBSE|             898     0.23341132E-007     0.10000000E+002                7
 RTBSE| Simulation step         Convergence     Electron number  ETRS Iterations
 RTBSE|             899     0.21142299E-007     0.10000000E+002                7
 RTBSE| Simulation step         Convergence     Electron number  ETRS Iterations
 RTBSE|             900     0.17831681E-007     0.10000000E+002                7
 RTBSE| Simulation step         Convergence     Electron number  ETRS Iterations
 RTBSE|             901     0.15295069E-007     0.10000000E+002                7
 RTBSE| Simulation step         Convergence     Electron number  ETRS Iterations
 RTBSE|             902     0.89265619E-007     0.10000000E+002                6
 RTBSE| Simulation step         Convergence     Electron number  ETRS Iterations
 RTBSE|             903     0.62339893E-007     0.10000000E+002                6
 RTBSE| Simulation step         Convergence     Electron number  ETRS Iterations
 RTBSE|             904     0.34371247E-007     0.10000000E+002                6
 RTBSE| Simulation step         Convergence     Electron number  ETRS Iterations
 RTBSE|             905     0.56429972E-007     0.10000000E+002                6
 RTBSE| Simulation step         Convergence     Electron number  ETRS Iterations
 RTBSE|             906     0.78738204E-007     0.10000000E+002                6
 RTBSE| Simulation step         Convergence     Electron number  ETRS Iterations
 RTBSE|             907     0.96838324E-007     0.10000000E+002                6
 RTBSE| Simulation step         Convergence     Electron number  ETRS Iterations
 RTBSE|             908     0.17108714E-007     0.10000000E+002                7
 RTBSE| Simulation step         Convergence     Electron number  ETRS Iterations
 RTBSE|             909     0.18545256E-007     0.10000000E+002                7
 RTBSE| Simulation step         Convergence     Electron number  ETRS Iterations
 RTBSE|             910     0.18933115E-007     0.10000000E+002                7
 RTBSE| Simulation step         Convergence     Electron number  ETRS Iterations
 RTBSE|             911     0.18390892E-007     0.10000000E+002                7
 RTBSE| Simulation step         Convergence     Electron number  ETRS Iterations
 RTBSE|             912     0.17180658E-007     0.10000000E+002                7
 RTBSE| Simulation step         Convergence     Electron number  ETRS Iterations
 RTBSE|             913     0.90296153E-007     0.10000000E+002                6
 RTBSE| Simulation step         Convergence     Electron number  ETRS Iterations
 RTBSE|             914     0.80298055E-007     0.10000000E+002                6
 RTBSE| Simulation step         Convergence     Electron number  ETRS Iterations
 RTBSE|             915     0.72905787E-007     0.10000000E+002                6
 RTBSE| Simulation step         Convergence     Electron number  ETRS Iterations
 RTBSE|             916     0.68624076E-007     0.10000000E+002                6
 RTBSE| Simulation step         Convergence     Electron number  ETRS Iterations
 RTBSE|             917     0.68849981E-007     0.10000000E+002                6
 RTBSE| Simulation step         Convergence     Electron number  ETRS Iterations
 RTBSE|             918     0.73713816E-007     0.10000000E+002                6
 RTBSE| Simulation step         Convergence     Electron number  ETRS Iterations
 RTBSE|             919     0.82391832E-007     0.10000000E+002                6
 RTBSE| Simulation step         Convergence     Electron number  ETRS Iterations
 RTBSE|             920     0.95702995E-007     0.10000000E+002                6
 RTBSE| Simulation step         Convergence     Electron number  ETRS Iterations
 RTBSE|             921     0.18825573E-007     0.10000000E+002                7
 RTBSE| Simulation step         Convergence     Electron number  ETRS Iterations
 RTBSE|             922     0.20762097E-007     0.10000000E+002                7
 RTBSE| Simulation step         Convergence     Electron number  ETRS Iterations
 RTBSE|             923     0.22006343E-007     0.10000000E+002                7
 RTBSE| Simulation step         Convergence     Electron number  ETRS Iterations
 RTBSE|             924     0.22089157E-007     0.10000000E+002                7
 RTBSE| Simulation step         Convergence     Electron number  ETRS Iterations
 RTBSE|             925     0.20590069E-007     0.10000000E+002                7
 RTBSE| Simulation step         Convergence     Electron number  ETRS Iterations
 RTBSE|             926     0.19015550E-007     0.10000000E+002                7
 RTBSE| Simulation step         Convergence     Electron number  ETRS Iterations
 RTBSE|             927     0.16467797E-007     0.10000000E+002                7
 RTBSE| Simulation step         Convergence     Electron number  ETRS Iterations
 RTBSE|             928     0.95487079E-007     0.10000000E+002                6
 RTBSE| Simulation step         Convergence     Electron number  ETRS Iterations
 RTBSE|             929     0.54227518E-007     0.10000000E+002                6
 RTBSE| Simulation step         Convergence     Electron number  ETRS Iterations
 RTBSE|             930     0.91129064E-007     0.10000000E+002                6
 RTBSE| Simulation step         Convergence     Electron number  ETRS Iterations
 RTBSE|             931     0.23436364E-007     0.10000000E+002                7
 RTBSE| Simulation step         Convergence     Electron number  ETRS Iterations
 RTBSE|             932     0.31574120E-007     0.10000000E+002                7
 RTBSE| Simulation step         Convergence     Electron number  ETRS Iterations
 RTBSE|             933     0.37866384E-007     0.10000000E+002                7
 RTBSE| Simulation step         Convergence     Electron number  ETRS Iterations
 RTBSE|             934     0.41828453E-007     0.10000000E+002                7
 RTBSE| Simulation step         Convergence     Electron number  ETRS Iterations
 RTBSE|             935     0.43362285E-007     0.10000000E+002                7
 RTBSE| Simulation step         Convergence     Electron number  ETRS Iterations
 RTBSE|             936     0.42768207E-007     0.10000000E+002                7
 RTBSE| Simulation step         Convergence     Electron number  ETRS Iterations
 RTBSE|             937     0.40535615E-007     0.10000000E+002                7
 RTBSE| Simulation step         Convergence     Electron number  ETRS Iterations
 RTBSE|             938     0.37283737E-007     0.10000000E+002                7
 RTBSE| Simulation step         Convergence     Electron number  ETRS Iterations
 RTBSE|             939     0.33630641E-007     0.10000000E+002                7
 RTBSE| Simulation step         Convergence     Electron number  ETRS Iterations
 RTBSE|             940     0.30129953E-007     0.10000000E+002                7
 RTBSE| Simulation step         Convergence     Electron number  ETRS Iterations
 RTBSE|             941     0.27235317E-007     0.10000000E+002                7
 RTBSE| Simulation step         Convergence     Electron number  ETRS Iterations
 RTBSE|             942     0.25303399E-007     0.10000000E+002                7
 RTBSE| Simulation step         Convergence     Electron number  ETRS Iterations
 RTBSE|             943     0.24410972E-007     0.10000000E+002                7
 RTBSE| Simulation step         Convergence     Electron number  ETRS Iterations
 RTBSE|             944     0.24554182E-007     0.10000000E+002                7
 RTBSE| Simulation step         Convergence     Electron number  ETRS Iterations
 RTBSE|             945     0.25460774E-007     0.10000000E+002                7
 RTBSE| Simulation step         Convergence     Electron number  ETRS Iterations
 RTBSE|             946     0.26672481E-007     0.10000000E+002                7
 RTBSE| Simulation step         Convergence     Electron number  ETRS Iterations
 RTBSE|             947     0.27679733E-007     0.10000000E+002                7
 RTBSE| Simulation step         Convergence     Electron number  ETRS Iterations
 RTBSE|             948     0.27994721E-007     0.10000000E+002                7
 RTBSE| Simulation step         Convergence     Electron number  ETRS Iterations
 RTBSE|             949     0.27588027E-007     0.10000000E+002                7
 RTBSE| Simulation step         Convergence     Electron number  ETRS Iterations
 RTBSE|             950     0.26237795E-007     0.10000000E+002                7
 RTBSE| Simulation step         Convergence     Electron number  ETRS Iterations
 RTBSE|             951     0.23329128E-007     0.10000000E+002                7
 RTBSE| Simulation step         Convergence     Electron number  ETRS Iterations
 RTBSE|             952     0.19047896E-007     0.10000000E+002                7
 RTBSE| Simulation step         Convergence     Electron number  ETRS Iterations
 RTBSE|             953     0.16080991E-007     0.10000000E+002                7
 RTBSE| Simulation step         Convergence     Electron number  ETRS Iterations
 RTBSE|             954     0.89578084E-007     0.10000000E+002                6
 RTBSE| Simulation step         Convergence     Electron number  ETRS Iterations
 RTBSE|             955     0.56970073E-007     0.10000000E+002                6
 RTBSE| Simulation step         Convergence     Electron number  ETRS Iterations
 RTBSE|             956     0.44682734E-007     0.10000000E+002                6
 RTBSE| Simulation step         Convergence     Electron number  ETRS Iterations
 RTBSE|             957     0.69394118E-007     0.10000000E+002                6
 RTBSE| Simulation step         Convergence     Electron number  ETRS Iterations
 RTBSE|             958     0.90794973E-007     0.10000000E+002                6
 RTBSE| Simulation step         Convergence     Electron number  ETRS Iterations
 RTBSE|             959     0.16397026E-007     0.10000000E+002                7
 RTBSE| Simulation step         Convergence     Electron number  ETRS Iterations
 RTBSE|             960     0.18174436E-007     0.10000000E+002                7
 RTBSE| Simulation step         Convergence     Electron number  ETRS Iterations
 RTBSE|             961     0.18725485E-007     0.10000000E+002                7
 RTBSE| Simulation step         Convergence     Electron number  ETRS Iterations
 RTBSE|             962     0.18203382E-007     0.10000000E+002                7
 RTBSE| Simulation step         Convergence     Electron number  ETRS Iterations
 RTBSE|             963     0.99352774E-007     0.10000000E+002                6
 RTBSE| Simulation step         Convergence     Electron number  ETRS Iterations
 RTBSE|             964     0.87894845E-007     0.10000000E+002                6
 RTBSE| Simulation step         Convergence     Electron number  ETRS Iterations
 RTBSE|             965     0.76855371E-007     0.10000000E+002                6
 RTBSE| Simulation step         Convergence     Electron number  ETRS Iterations
 RTBSE|             966     0.68420796E-007     0.10000000E+002                6
 RTBSE| Simulation step         Convergence     Electron number  ETRS Iterations
 RTBSE|             967     0.64229296E-007     0.10000000E+002                6
 RTBSE| Simulation step         Convergence     Electron number  ETRS Iterations
 RTBSE|             968     0.65197998E-007     0.10000000E+002                6
 RTBSE| Simulation step         Convergence     Electron number  ETRS Iterations
 RTBSE|             969     0.71372621E-007     0.10000000E+002                6
 RTBSE| Simulation step         Convergence     Electron number  ETRS Iterations
 RTBSE|             970     0.81949574E-007     0.10000000E+002                6
 RTBSE| Simulation step         Convergence     Electron number  ETRS Iterations
 RTBSE|             971     0.95282857E-007     0.10000000E+002                6
 RTBSE| Simulation step         Convergence     Electron number  ETRS Iterations
 RTBSE|             972     0.19304433E-007     0.10000000E+002                7
 RTBSE| Simulation step         Convergence     Electron number  ETRS Iterations
 RTBSE|             973     0.21668997E-007     0.10000000E+002                7
 RTBSE| Simulation step         Convergence     Electron number  ETRS Iterations
 RTBSE|             974     0.23336129E-007     0.10000000E+002                7
 RTBSE| Simulation step         Convergence     Electron number  ETRS Iterations
 RTBSE|             975     0.23819366E-007     0.10000000E+002                7
 RTBSE| Simulation step         Convergence     Electron number  ETRS Iterations
 RTBSE|             976     0.22720587E-007     0.10000000E+002                7
 RTBSE| Simulation step         Convergence     Electron number  ETRS Iterations
 RTBSE|             977     0.20363206E-007     0.10000000E+002                7
 RTBSE| Simulation step         Convergence     Electron number  ETRS Iterations
 RTBSE|             978     0.17961617E-007     0.10000000E+002                7
 RTBSE| Simulation step         Convergence     Electron number  ETRS Iterations
 RTBSE|             979     0.14192793E-007     0.10000000E+002                7
 RTBSE| Simulation step         Convergence     Electron number  ETRS Iterations
 RTBSE|             980     0.67807188E-007     0.10000000E+002                6
 RTBSE| Simulation step         Convergence     Electron number  ETRS Iterations
 RTBSE|             981     0.75470424E-007     0.10000000E+002                6
 RTBSE| Simulation step         Convergence     Electron number  ETRS Iterations
 RTBSE|             982     0.20188909E-007     0.10000000E+002                7
 RTBSE| Simulation step         Convergence     Electron number  ETRS Iterations
 RTBSE|             983     0.28405796E-007     0.10000000E+002                7
 RTBSE| Simulation step         Convergence     Electron number  ETRS Iterations
 RTBSE|             984     0.34774519E-007     0.10000000E+002                7
 RTBSE| Simulation step         Convergence     Electron number  ETRS Iterations
 RTBSE|             985     0.38780194E-007     0.10000000E+002                7
 RTBSE| Simulation step         Convergence     Electron number  ETRS Iterations
 RTBSE|             986     0.40313435E-007     0.10000000E+002                7
 RTBSE| Simulation step         Convergence     Electron number  ETRS Iterations
 RTBSE|             987     0.39620301E-007     0.10000000E+002                7
 RTBSE| Simulation step         Convergence     Electron number  ETRS Iterations
 RTBSE|             988     0.37233645E-007     0.10000000E+002                7
 RTBSE| Simulation step         Convergence     Electron number  ETRS Iterations
 RTBSE|             989     0.33794560E-007     0.10000000E+002                7
 RTBSE| Simulation step         Convergence     Electron number  ETRS Iterations
 RTBSE|             990     0.30004755E-007     0.10000000E+002                7
 RTBSE| Simulation step         Convergence     Electron number  ETRS Iterations
 RTBSE|             991     0.26492409E-007     0.10000000E+002                7
 RTBSE| Simulation step         Convergence     Electron number  ETRS Iterations
 RTBSE|             992     0.23783261E-007     0.10000000E+002                7
 RTBSE| Simulation step         Convergence     Electron number  ETRS Iterations
 RTBSE|             993     0.22292498E-007     0.10000000E+002                7
 RTBSE| Simulation step         Convergence     Electron number  ETRS Iterations
 RTBSE|             994     0.22232273E-007     0.10000000E+002                7
 RTBSE| Simulation step         Convergence     Electron number  ETRS Iterations
 RTBSE|             995     0.23531192E-007     0.10000000E+002                7
 RTBSE| Simulation step         Convergence     Electron number  ETRS Iterations
 RTBSE|             996     0.25885439E-007     0.10000000E+002                7
 RTBSE| Simulation step         Convergence     Electron number  ETRS Iterations
 RTBSE|             997     0.28680544E-007     0.10000000E+002                7
 RTBSE| Simulation step         Convergence     Electron number  ETRS Iterations
 RTBSE|             998     0.31220019E-007     0.10000000E+002                7
 RTBSE| Simulation step         Convergence     Electron number  ETRS Iterations
 RTBSE|             999     0.32787587E-007     0.10000000E+002                7
 RTBSE| Simulation step         Convergence     Electron number  ETRS Iterations
 RTBSE|            1000     0.32859881E-007     0.10000000E+002                7
 RTBSE| Simulation step         Convergence     Electron number  ETRS Iterations
 RTBSE|            1001     0.31820803E-007     0.10000000E+002                7
 RTBSE| Simulation step         Convergence     Electron number  ETRS Iterations
 RTBSE|            1002     0.29069446E-007     0.10000000E+002                7
 RTBSE| Simulation step         Convergence     Electron number  ETRS Iterations
 RTBSE|            1003     0.24502780E-007     0.10000000E+002                7
 RTBSE| Simulation step         Convergence     Electron number  ETRS Iterations
 RTBSE|            1004     0.19799041E-007     0.10000000E+002                7
 RTBSE| Simulation step         Convergence     Electron number  ETRS Iterations
 RTBSE|            1005     0.15748148E-007     0.10000000E+002                7
 RTBSE| Simulation step         Convergence     Electron number  ETRS Iterations
 RTBSE|            1006     0.78935615E-007     0.10000000E+002                6
 RTBSE| Simulation step         Convergence     Electron number  ETRS Iterations
 RTBSE|            1007     0.42703378E-007     0.10000000E+002                6
 RTBSE| Simulation step         Convergence     Electron number  ETRS Iterations
 RTBSE|            1008     0.61339827E-007     0.10000000E+002                6
 RTBSE| Simulation step         Convergence     Electron number  ETRS Iterations
 RTBSE|            1009     0.85263826E-007     0.10000000E+002                6
 RTBSE| Simulation step         Convergence     Electron number  ETRS Iterations
 RTBSE|            1010     0.15692292E-007     0.10000000E+002                7
 RTBSE| Simulation step         Convergence     Electron number  ETRS Iterations
 RTBSE|            1011     0.17836287E-007     0.10000000E+002                7
 RTBSE| Simulation step         Convergence     Electron number  ETRS Iterations
 RTBSE|            1012     0.18592907E-007     0.10000000E+002                7
 RTBSE| Simulation step         Convergence     Electron number  ETRS Iterations
 RTBSE|            1013     0.18170450E-007     0.10000000E+002                7
 RTBSE| Simulation step         Convergence     Electron number  ETRS Iterations
 RTBSE|            1014     0.99565759E-007     0.10000000E+002                6
 RTBSE| Simulation step         Convergence     Electron number  ETRS Iterations
 RTBSE|            1015     0.87494619E-007     0.10000000E+002                6
 RTBSE| Simulation step         Convergence     Electron number  ETRS Iterations
 RTBSE|            1016     0.75597838E-007     0.10000000E+002                6
 RTBSE| Simulation step         Convergence     Electron number  ETRS Iterations
 RTBSE|            1017     0.66182087E-007     0.10000000E+002                6
 RTBSE| Simulation step         Convergence     Electron number  ETRS Iterations
 RTBSE|            1018     0.61105559E-007     0.10000000E+002                6
 RTBSE| Simulation step         Convergence     Electron number  ETRS Iterations
 RTBSE|            1019     0.61438086E-007     0.10000000E+002                6
 RTBSE| Simulation step         Convergence     Electron number  ETRS Iterations
 RTBSE|            1020     0.67317743E-007     0.10000000E+002                6
 RTBSE| Simulation step         Convergence     Electron number  ETRS Iterations
 RTBSE|            1021     0.78011630E-007     0.10000000E+002                6
 RTBSE| Simulation step         Convergence     Electron number  ETRS Iterations
 RTBSE|            1022     0.91983761E-007     0.10000000E+002                6
 RTBSE| Simulation step         Convergence     Electron number  ETRS Iterations
 RTBSE|            1023     0.18706889E-007     0.10000000E+002                7
 RTBSE| Simulation step         Convergence     Electron number  ETRS Iterations
 RTBSE|            1024     0.21345867E-007     0.10000000E+002                7
 RTBSE| Simulation step         Convergence     Electron number  ETRS Iterations
 RTBSE|            1025     0.23396390E-007     0.10000000E+002                7
 RTBSE| Simulation step         Convergence     Electron number  ETRS Iterations
 RTBSE|            1026     0.24386778E-007     0.10000000E+002                7
 RTBSE| Simulation step         Convergence     Electron number  ETRS Iterations
 RTBSE|            1027     0.23912232E-007     0.10000000E+002                7
 RTBSE| Simulation step         Convergence     Electron number  ETRS Iterations
 RTBSE|            1028     0.21592170E-007     0.10000000E+002                7
 RTBSE| Simulation step         Convergence     Electron number  ETRS Iterations
 RTBSE|            1029     0.19186877E-007     0.10000000E+002                7
 RTBSE| Simulation step         Convergence     Electron number  ETRS Iterations
 RTBSE|            1030     0.15857655E-007     0.10000000E+002                7
 RTBSE| Simulation step         Convergence     Electron number  ETRS Iterations
 RTBSE|            1031     0.83779072E-007     0.10000000E+002                6
 RTBSE| Simulation step         Convergence     Electron number  ETRS Iterations
 RTBSE|            1032     0.57740469E-007     0.10000000E+002                6
 RTBSE| Simulation step         Convergence     Electron number  ETRS Iterations
 RTBSE|            1033     0.94938277E-007     0.10000000E+002                6
 RTBSE| Simulation step         Convergence     Electron number  ETRS Iterations
 RTBSE|            1034     0.23982421E-007     0.10000000E+002                7
 RTBSE| Simulation step         Convergence     Electron number  ETRS Iterations
 RTBSE|            1035     0.30537985E-007     0.10000000E+002                7
 RTBSE| Simulation step         Convergence     Electron number  ETRS Iterations
 RTBSE|            1036     0.34839817E-007     0.10000000E+002                7
 RTBSE| Simulation step         Convergence     Electron number  ETRS Iterations
 RTBSE|            1037     0.36691403E-007     0.10000000E+002                7
 RTBSE| Simulation step         Convergence     Electron number  ETRS Iterations
 RTBSE|            1038     0.36257315E-007     0.10000000E+002                7
 RTBSE| Simulation step         Convergence     Electron number  ETRS Iterations
 RTBSE|            1039     0.34052984E-007     0.10000000E+002                7
 RTBSE| Simulation step         Convergence     Electron number  ETRS Iterations
 RTBSE|            1040     0.30784367E-007     0.10000000E+002                7
 RTBSE| Simulation step         Convergence     Electron number  ETRS Iterations
 RTBSE|            1041     0.27179515E-007     0.10000000E+002                7
 RTBSE| Simulation step         Convergence     Electron number  ETRS Iterations
 RTBSE|            1042     0.23962539E-007     0.10000000E+002                7
 RTBSE| Simulation step         Convergence     Electron number  ETRS Iterations
 RTBSE|            1043     0.21698858E-007     0.10000000E+002                7
 RTBSE| Simulation step         Convergence     Electron number  ETRS Iterations
 RTBSE|            1044     0.20819129E-007     0.10000000E+002                7
 RTBSE| Simulation step         Convergence     Electron number  ETRS Iterations
 RTBSE|            1045     0.21546109E-007     0.10000000E+002                7
 RTBSE| Simulation step         Convergence     Electron number  ETRS Iterations
 RTBSE|            1046     0.23794362E-007     0.10000000E+002                7
 RTBSE| Simulation step         Convergence     Electron number  ETRS Iterations
 RTBSE|            1047     0.27190336E-007     0.10000000E+002                7
 RTBSE| Simulation step         Convergence     Electron number  ETRS Iterations
 RTBSE|            1048     0.31039942E-007     0.10000000E+002                7
 RTBSE| Simulation step         Convergence     Electron number  ETRS Iterations
 RTBSE|            1049     0.34542310E-007     0.10000000E+002                7
 RTBSE| Simulation step         Convergence     Electron number  ETRS Iterations
 RTBSE|            1050     0.36895078E-007     0.10000000E+002                7
 RTBSE| Simulation step         Convergence     Electron number  ETRS Iterations
 RTBSE|            1051     0.37491495E-007     0.10000000E+002                7
 RTBSE| Simulation step         Convergence     Electron number  ETRS Iterations
 RTBSE|            1052     0.36061648E-007     0.10000000E+002                7
 RTBSE| Simulation step         Convergence     Electron number  ETRS Iterations
 RTBSE|            1053     0.33350827E-007     0.10000000E+002                7
 RTBSE| Simulation step         Convergence     Electron number  ETRS Iterations
 RTBSE|            1054     0.28723510E-007     0.10000000E+002                7
 RTBSE| Simulation step         Convergence     Electron number  ETRS Iterations
 RTBSE|            1055     0.22639220E-007     0.10000000E+002                7
 RTBSE| Simulation step         Convergence     Electron number  ETRS Iterations
 RTBSE|            1056     0.18489782E-007     0.10000000E+002                7
 RTBSE| Simulation step         Convergence     Electron number  ETRS Iterations
 RTBSE|            1057     0.98699919E-007     0.10000000E+002                6
 RTBSE| Simulation step         Convergence     Electron number  ETRS Iterations
 RTBSE|            1058     0.59637141E-007     0.10000000E+002                6
 RTBSE| Simulation step         Convergence     Electron number  ETRS Iterations
 RTBSE|            1059     0.52036077E-007     0.10000000E+002                6
 RTBSE| Simulation step         Convergence     Electron number  ETRS Iterations
 RTBSE|            1060     0.77564284E-007     0.10000000E+002                6
 RTBSE| Simulation step         Convergence     Electron number  ETRS Iterations
 RTBSE|            1061     0.97612353E-007     0.10000000E+002                6
 RTBSE| Simulation step         Convergence     Electron number  ETRS Iterations
 RTBSE|            1062     0.17227657E-007     0.10000000E+002                7
 RTBSE| Simulation step         Convergence     Electron number  ETRS Iterations
 RTBSE|            1063     0.18381966E-007     0.10000000E+002                7
 RTBSE| Simulation step         Convergence     Electron number  ETRS Iterations
 RTBSE|            1064     0.18219284E-007     0.10000000E+002                7
 RTBSE| Simulation step         Convergence     Electron number  ETRS Iterations
 RTBSE|            1065     0.16999898E-007     0.10000000E+002                7
 RTBSE| Simulation step         Convergence     Electron number  ETRS Iterations
 RTBSE|            1066     0.88421899E-007     0.10000000E+002                6
 RTBSE| Simulation step         Convergence     Electron number  ETRS Iterations
 RTBSE|            1067     0.75224009E-007     0.10000000E+002                6
 RTBSE| Simulation step         Convergence     Electron number  ETRS Iterations
 RTBSE|            1068     0.63982285E-007     0.10000000E+002                6
 RTBSE| Simulation step         Convergence     Electron number  ETRS Iterations
 RTBSE|            1069     0.56780654E-007     0.10000000E+002                6
 RTBSE| Simulation step         Convergence     Electron number  ETRS Iterations
 RTBSE|            1070     0.55006973E-007     0.10000000E+002                6
 RTBSE| Simulation step         Convergence     Electron number  ETRS Iterations
 RTBSE|            1071     0.59189359E-007     0.10000000E+002                6
 RTBSE| Simulation step         Convergence     Electron number  ETRS Iterations
 RTBSE|            1072     0.68868545E-007     0.10000000E+002                6
 RTBSE| Simulation step         Convergence     Electron number  ETRS Iterations
 RTBSE|            1073     0.82814774E-007     0.10000000E+002                6
 RTBSE| Simulation step         Convergence     Electron number  ETRS Iterations
 RTBSE|            1074     0.99055937E-007     0.10000000E+002                6
 RTBSE| Simulation step         Convergence     Electron number  ETRS Iterations
 RTBSE|            1075     0.20054615E-007     0.10000000E+002                7
 RTBSE| Simulation step         Convergence     Electron number  ETRS Iterations
 RTBSE|            1076     0.22642052E-007     0.10000000E+002                7
 RTBSE| Simulation step         Convergence     Electron number  ETRS Iterations
 RTBSE|            1077     0.24371018E-007     0.10000000E+002                7
 RTBSE| Simulation step         Convergence     Electron number  ETRS Iterations
 RTBSE|            1078     0.24769577E-007     0.10000000E+002                7
 RTBSE| Simulation step         Convergence     Electron number  ETRS Iterations
 RTBSE|            1079     0.23411225E-007     0.10000000E+002                7
 RTBSE| Simulation step         Convergence     Electron number  ETRS Iterations
 RTBSE|            1080     0.20390573E-007     0.10000000E+002                7
 RTBSE| Simulation step         Convergence     Electron number  ETRS Iterations
 RTBSE|            1081     0.17700122E-007     0.10000000E+002                7
 RTBSE| Simulation step         Convergence     Electron number  ETRS Iterations
 RTBSE|            1082     0.13615974E-007     0.10000000E+002                7
 RTBSE| Simulation step         Convergence     Electron number  ETRS Iterations
 RTBSE|            1083     0.61319825E-007     0.10000000E+002                6
 RTBSE| Simulation step         Convergence     Electron number  ETRS Iterations
 RTBSE|            1084     0.72210189E-007     0.10000000E+002                6
 RTBSE| Simulation step         Convergence     Electron number  ETRS Iterations
 RTBSE|            1085     0.18825150E-007     0.10000000E+002                7
 RTBSE| Simulation step         Convergence     Electron number  ETRS Iterations
 RTBSE|            1086     0.25657978E-007     0.10000000E+002                7
 RTBSE| Simulation step         Convergence     Electron number  ETRS Iterations
 RTBSE|            1087     0.30393837E-007     0.10000000E+002                7
 RTBSE| Simulation step         Convergence     Electron number  ETRS Iterations
 RTBSE|            1088     0.32780751E-007     0.10000000E+002                7
 RTBSE| Simulation step         Convergence     Electron number  ETRS Iterations
 RTBSE|            1089     0.32921553E-007     0.10000000E+002                7
 RTBSE| Simulation step         Convergence     Electron number  ETRS Iterations
 RTBSE|            1090     0.31263210E-007     0.10000000E+002                7
 RTBSE| Simulation step         Convergence     Electron number  ETRS Iterations
 RTBSE|            1091     0.28488685E-007     0.10000000E+002                7
 RTBSE| Simulation step         Convergence     Electron number  ETRS Iterations
 RTBSE|            1092     0.25358053E-007     0.10000000E+002                7
 RTBSE| Simulation step         Convergence     Electron number  ETRS Iterations
 RTBSE|            1093     0.22552989E-007     0.10000000E+002                7
 RTBSE| Simulation step         Convergence     Electron number  ETRS Iterations
 RTBSE|            1094     0.20692184E-007     0.10000000E+002                7
 RTBSE| Simulation step         Convergence     Electron number  ETRS Iterations
 RTBSE|            1095     0.20196919E-007     0.10000000E+002                7
 RTBSE| Simulation step         Convergence     Electron number  ETRS Iterations
 RTBSE|            1096     0.21321574E-007     0.10000000E+002                7
 RTBSE| Simulation step         Convergence     Electron number  ETRS Iterations
 RTBSE|            1097     0.23996824E-007     0.10000000E+002                7
 RTBSE| Simulation step         Convergence     Electron number  ETRS Iterations
 RTBSE|            1098     0.27871076E-007     0.10000000E+002                7
 RTBSE| Simulation step         Convergence     Electron number  ETRS Iterations
 RTBSE|            1099     0.32302722E-007     0.10000000E+002                7
 RTBSE| Simulation step         Convergence     Electron number  ETRS Iterations
 RTBSE|            1100     0.36440573E-007     0.10000000E+002                7
 RTBSE| Simulation step         Convergence     Electron number  ETRS Iterations
 RTBSE|            1101     0.39461187E-007     0.10000000E+002                7
 RTBSE| Simulation step         Convergence     Electron number  ETRS Iterations
 RTBSE|            1102     0.40679942E-007     0.10000000E+002                7
 RTBSE| Simulation step         Convergence     Electron number  ETRS Iterations
 RTBSE|            1103     0.39740917E-007     0.10000000E+002                7
 RTBSE| Simulation step         Convergence     Electron number  ETRS Iterations
 RTBSE|            1104     0.36643867E-007     0.10000000E+002                7
 RTBSE| Simulation step         Convergence     Electron number  ETRS Iterations
 RTBSE|            1105     0.32296070E-007     0.10000000E+002                7
 RTBSE| Simulation step         Convergence     Electron number  ETRS Iterations
 RTBSE|            1106     0.26277234E-007     0.10000000E+002                7
 RTBSE| Simulation step         Convergence     Electron number  ETRS Iterations
 RTBSE|            1107     0.21020883E-007     0.10000000E+002                7
 RTBSE| Simulation step         Convergence     Electron number  ETRS Iterations
 RTBSE|            1108     0.16209766E-007     0.10000000E+002                7
 RTBSE| Simulation step         Convergence     Electron number  ETRS Iterations
 RTBSE|            1109     0.77052508E-007     0.10000000E+002                6
 RTBSE| Simulation step         Convergence     Electron number  ETRS Iterations
 RTBSE|            1110     0.42258857E-007     0.10000000E+002                6
 RTBSE| Simulation step         Convergence     Electron number  ETRS Iterations
 RTBSE|            1111     0.67941063E-007     0.10000000E+002                6
 RTBSE| Simulation step         Convergence     Electron number  ETRS Iterations
 RTBSE|            1112     0.90246745E-007     0.10000000E+002                6
 RTBSE| Simulation step         Convergence     Electron number  ETRS Iterations
 RTBSE|            1113     0.16253431E-007     0.10000000E+002                7
 RTBSE| Simulation step         Convergence     Electron number  ETRS Iterations
 RTBSE|            1114     0.17735352E-007     0.10000000E+002                7
 RTBSE| Simulation step         Convergence     Electron number  ETRS Iterations
 RTBSE|            1115     0.17763953E-007     0.10000000E+002                7
 RTBSE| Simulation step         Convergence     Electron number  ETRS Iterations
 RTBSE|            1116     0.98601937E-007     0.10000000E+002                6
 RTBSE| Simulation step         Convergence     Electron number  ETRS Iterations
 RTBSE|            1117     0.85386707E-007     0.10000000E+002                6
 RTBSE| Simulation step         Convergence     Electron number  ETRS Iterations
 RTBSE|            1118     0.70884604E-007     0.10000000E+002                6
 RTBSE| Simulation step         Convergence     Electron number  ETRS Iterations
 RTBSE|            1119     0.57840317E-007     0.10000000E+002                6
 RTBSE| Simulation step         Convergence     Electron number  ETRS Iterations
 RTBSE|            1120     0.48739608E-007     0.10000000E+002                6
 RTBSE| Simulation step         Convergence     Electron number  ETRS Iterations
 RTBSE|            1121     0.45373857E-007     0.10000000E+002                6
 RTBSE| Simulation step         Convergence     Electron number  ETRS Iterations
 RTBSE|            1122     0.48624315E-007     0.10000000E+002                6
 RTBSE| Simulation step         Convergence     Electron number  ETRS Iterations
 RTBSE|            1123     0.58278447E-007     0.10000000E+002                6
 RTBSE| Simulation step         Convergence     Electron number  ETRS Iterations
 RTBSE|            1124     0.73141740E-007     0.10000000E+002                6
 RTBSE| Simulation step         Convergence     Electron number  ETRS Iterations
 RTBSE|            1125     0.91362810E-007     0.10000000E+002                6
 RTBSE| Simulation step         Convergence     Electron number  ETRS Iterations
 RTBSE|            1126     0.18887197E-007     0.10000000E+002                7
 RTBSE| Simulation step         Convergence     Electron number  ETRS Iterations
 RTBSE|            1127     0.22094276E-007     0.10000000E+002                7
 RTBSE| Simulation step         Convergence     Electron number  ETRS Iterations
 RTBSE|            1128     0.24578037E-007     0.10000000E+002                7
 RTBSE| Simulation step         Convergence     Electron number  ETRS Iterations
 RTBSE|            1129     0.25859108E-007     0.10000000E+002                7
 RTBSE| Simulation step         Convergence     Electron number  ETRS Iterations
 RTBSE|            1130     0.25487780E-007     0.10000000E+002                7
 RTBSE| Simulation step         Convergence     Electron number  ETRS Iterations
 RTBSE|            1131     0.23119265E-007     0.10000000E+002                7
 RTBSE| Simulation step         Convergence     Electron number  ETRS Iterations
 RTBSE|            1132     0.19875791E-007     0.10000000E+002                7
 RTBSE| Simulation step         Convergence     Electron number  ETRS Iterations
 RTBSE|            1133     0.16363974E-007     0.10000000E+002                7
 RTBSE| Simulation step         Convergence     Electron number  ETRS Iterations
 RTBSE|            1134     0.86353034E-007     0.10000000E+002                6
 RTBSE| Simulation step         Convergence     Electron number  ETRS Iterations
 RTBSE|            1135     0.49623898E-007     0.10000000E+002                6
 RTBSE| Simulation step         Convergence     Electron number  ETRS Iterations
 RTBSE|            1136     0.81165510E-007     0.10000000E+002                6
 RTBSE| Simulation step         Convergence     Electron number  ETRS Iterations
 RTBSE|            1137     0.20252670E-007     0.10000000E+002                7
 RTBSE| Simulation step         Convergence     Electron number  ETRS Iterations
 RTBSE|            1138     0.25667186E-007     0.10000000E+002                7
 RTBSE| Simulation step         Convergence     Electron number  ETRS Iterations
 RTBSE|            1139     0.28939793E-007     0.10000000E+002                7
 RTBSE| Simulation step         Convergence     Electron number  ETRS Iterations
 RTBSE|            1140     0.30030611E-007     0.10000000E+002                7
 RTBSE| Simulation step         Convergence     Electron number  ETRS Iterations
 RTBSE|            1141     0.29254913E-007     0.10000000E+002                7
 RTBSE| Simulation step         Convergence     Electron number  ETRS Iterations
 RTBSE|            1142     0.27193490E-007     0.10000000E+002                7
 RTBSE| Simulation step         Convergence     Electron number  ETRS Iterations
 RTBSE|            1143     0.24570027E-007     0.10000000E+002                7
 RTBSE| Simulation step         Convergence     Electron number  ETRS Iterations
 RTBSE|            1144     0.22077659E-007     0.10000000E+002                7
 RTBSE| Simulation step         Convergence     Electron number  ETRS Iterations
 RTBSE|            1145     0.20369390E-007     0.10000000E+002                7
 RTBSE| Simulation step         Convergence     Electron number  ETRS Iterations
 RTBSE|            1146     0.19925445E-007     0.10000000E+002                7
 RTBSE| Simulation step         Convergence     Electron number  ETRS Iterations
 RTBSE|            1147     0.21053674E-007     0.10000000E+002                7
 RTBSE| Simulation step         Convergence     Electron number  ETRS Iterations
 RTBSE|            1148     0.23847598E-007     0.10000000E+002                7
 RTBSE| Simulation step         Convergence     Electron number  ETRS Iterations
 RTBSE|            1149     0.28004415E-007     0.10000000E+002                7
 RTBSE| Simulation step         Convergence     Electron number  ETRS Iterations
 RTBSE|            1150     0.32954779E-007     0.10000000E+002                7
 RTBSE| Simulation step         Convergence     Electron number  ETRS Iterations
 RTBSE|            1151     0.37824226E-007     0.10000000E+002                7
 RTBSE| Simulation step         Convergence     Electron number  ETRS Iterations
 RTBSE|            1152     0.41663642E-007     0.10000000E+002                7
 RTBSE| Simulation step         Convergence     Electron number  ETRS Iterations
 RTBSE|            1153     0.43671714E-007     0.10000000E+002                7
 RTBSE| Simulation step         Convergence     Electron number  ETRS Iterations
 RTBSE|            1154     0.43388824E-007     0.10000000E+002                7
 RTBSE| Simulation step         Convergence     Electron number  ETRS Iterations
 RTBSE|            1155     0.40702647E-007     0.10000000E+002                7
 RTBSE| Simulation step         Convergence     Electron number  ETRS Iterations
 RTBSE|            1156     0.35856500E-007     0.10000000E+002                7
 RTBSE| Simulation step         Convergence     Electron number  ETRS Iterations
 RTBSE|            1157     0.29767477E-007     0.10000000E+002                7
 RTBSE| Simulation step         Convergence     Electron number  ETRS Iterations
 RTBSE|            1158     0.23267514E-007     0.10000000E+002                7
 RTBSE| Simulation step         Convergence     Electron number  ETRS Iterations
 RTBSE|            1159     0.18380329E-007     0.10000000E+002                7
 RTBSE| Simulation step         Convergence     Electron number  ETRS Iterations
 RTBSE|            1160     0.92598651E-007     0.10000000E+002                6
 RTBSE| Simulation step         Convergence     Electron number  ETRS Iterations
 RTBSE|            1161     0.52313178E-007     0.10000000E+002                6
 RTBSE| Simulation step         Convergence     Electron number  ETRS Iterations
 RTBSE|            1162     0.57931751E-007     0.10000000E+002                6
 RTBSE| Simulation step         Convergence     Electron number  ETRS Iterations
 RTBSE|            1163     0.80890885E-007     0.10000000E+002                6
 RTBSE| Simulation step         Convergence     Electron number  ETRS Iterations
 RTBSE|            1164     0.96141212E-007     0.10000000E+002                6
 RTBSE| Simulation step         Convergence     Electron number  ETRS Iterations
 RTBSE|            1165     0.16371247E-007     0.10000000E+002                7
 RTBSE| Simulation step         Convergence     Electron number  ETRS Iterations
 RTBSE|            1166     0.16424348E-007     0.10000000E+002                7
 RTBSE| Simulation step         Convergence     Electron number  ETRS Iterations
 RTBSE|            1167     0.90812204E-007     0.10000000E+002                6
 RTBSE| Simulation step         Convergence     Electron number  ETRS Iterations
 RTBSE|            1168     0.77267239E-007     0.10000000E+002                6
 RTBSE| Simulation step         Convergence     Electron number  ETRS Iterations
 RTBSE|            1169     0.62318505E-007     0.10000000E+002                6
 RTBSE| Simulation step         Convergence     Electron number  ETRS Iterations
 RTBSE|            1170     0.49011366E-007     0.10000000E+002                6
 RTBSE| Simulation step         Convergence     Electron number  ETRS Iterations
 RTBSE|            1171     0.39926761E-007     0.10000000E+002                6
 RTBSE| Simulation step         Convergence     Electron number  ETRS Iterations
 RTBSE|            1172     0.37029448E-007     0.10000000E+002                6
 RTBSE| Simulation step         Convergence     Electron number  ETRS Iterations
 RTBSE|            1173     0.41108104E-007     0.10000000E+002                6
 RTBSE| Simulation step         Convergence     Electron number  ETRS Iterations
 RTBSE|            1174     0.51960699E-007     0.10000000E+002                6
 RTBSE| Simulation step         Convergence     Electron number  ETRS Iterations
 RTBSE|            1175     0.68466686E-007     0.10000000E+002                6
 RTBSE| Simulation step         Convergence     Electron number  ETRS Iterations
 RTBSE|            1176     0.88866527E-007     0.10000000E+002                6
 RTBSE| Simulation step         Convergence     Electron number  ETRS Iterations
 RTBSE|            1177     0.18575177E-007     0.10000000E+002                7
 RTBSE| Simulation step         Convergence     Electron number  ETRS Iterations
 RTBSE|            1178     0.22277287E-007     0.10000000E+002                7
 RTBSE| Simulation step         Convergence     Electron number  ETRS Iterations
 RTBSE|            1179     0.25347989E-007     0.10000000E+002                7
 RTBSE| Simulation step         Convergence     Electron number  ETRS Iterations
 RTBSE|            1180     0.27294033E-007     0.10000000E+002                7
 RTBSE| Simulation step         Convergence     Electron number  ETRS Iterations
 RTBSE|            1181     0.27661138E-007     0.10000000E+002                7
 RTBSE| Simulation step         Convergence     Electron number  ETRS Iterations
 RTBSE|            1182     0.26090736E-007     0.10000000E+002                7
 RTBSE| Simulation step         Convergence     Electron number  ETRS Iterations
 RTBSE|            1183     0.22376693E-007     0.10000000E+002                7
 RTBSE| Simulation step         Convergence     Electron number  ETRS Iterations
 RTBSE|            1184     0.19118757E-007     0.10000000E+002                7
 RTBSE| Simulation step         Convergence     Electron number  ETRS Iterations
 RTBSE|            1185     0.14754450E-007     0.10000000E+002                7
 RTBSE| Simulation step         Convergence     Electron number  ETRS Iterations
 RTBSE|            1186     0.69342331E-007     0.10000000E+002                6
 RTBSE| Simulation step         Convergence     Electron number  ETRS Iterations
 RTBSE|            1187     0.63079043E-007     0.10000000E+002                6
 RTBSE| Simulation step         Convergence     Electron number  ETRS Iterations
 RTBSE|            1188     0.94096627E-007     0.10000000E+002                6
 RTBSE| Simulation step         Convergence     Electron number  ETRS Iterations
 RTBSE|            1189     0.22148325E-007     0.10000000E+002                7
 RTBSE| Simulation step         Convergence     Electron number  ETRS Iterations
 RTBSE|            1190     0.26175288E-007     0.10000000E+002                7
 RTBSE| Simulation step         Convergence     Electron number  ETRS Iterations
 RTBSE|            1191     0.27975819E-007     0.10000000E+002                7
 RTBSE| Simulation step         Convergence     Electron number  ETRS Iterations
 RTBSE|            1192     0.27781821E-007     0.10000000E+002                7
 RTBSE| Simulation step         Convergence     Electron number  ETRS Iterations
 RTBSE|            1193     0.26087054E-007     0.10000000E+002                7
 RTBSE| Simulation step         Convergence     Electron number  ETRS Iterations
 RTBSE|            1194     0.23604158E-007     0.10000000E+002                7
 RTBSE| Simulation step         Convergence     Electron number  ETRS Iterations
 RTBSE|            1195     0.21130666E-007     0.10000000E+002                7
 RTBSE| Simulation step         Convergence     Electron number  ETRS Iterations
 RTBSE|            1196     0.19351344E-007     0.10000000E+002                7
 RTBSE| Simulation step         Convergence     Electron number  ETRS Iterations
 RTBSE|            1197     0.18896160E-007     0.10000000E+002                7
 RTBSE| Simulation step         Convergence     Electron number  ETRS Iterations
 RTBSE|            1198     0.20129848E-007     0.10000000E+002                7
 RTBSE| Simulation step         Convergence     Electron number  ETRS Iterations
 RTBSE|            1199     0.23185978E-007     0.10000000E+002                7
 RTBSE| Simulation step         Convergence     Electron number  ETRS Iterations
 RTBSE|            1200     0.27818773E-007     0.10000000E+002                7
 RTBSE| Simulation step         Convergence     Electron number  ETRS Iterations
 RTBSE|            1201     0.33403714E-007     0.10000000E+002                7
 RTBSE| Simulation step         Convergence     Electron number  ETRS Iterations
 RTBSE|            1202     0.39034004E-007     0.10000000E+002                7
 RTBSE| Simulation step         Convergence     Electron number  ETRS Iterations
 RTBSE|            1203     0.43646909E-007     0.10000000E+002                7
 RTBSE| Simulation step         Convergence     Electron number  ETRS Iterations
 RTBSE|            1204     0.46371813E-007     0.10000000E+002                7
 RTBSE| Simulation step         Convergence     Electron number  ETRS Iterations
 RTBSE|            1205     0.46591947E-007     0.10000000E+002                7
 RTBSE| Simulation step         Convergence     Electron number  ETRS Iterations
 RTBSE|            1206     0.44153526E-007     0.10000000E+002                7
 RTBSE| Simulation step         Convergence     Electron number  ETRS Iterations
 RTBSE|            1207     0.39314577E-007     0.10000000E+002                7
 RTBSE| Simulation step         Convergence     Electron number  ETRS Iterations
 RTBSE|            1208     0.32637653E-007     0.10000000E+002                7
 RTBSE| Simulation step         Convergence     Electron number  ETRS Iterations
 RTBSE|            1209     0.25117901E-007     0.10000000E+002                7
 RTBSE| Simulation step         Convergence     Electron number  ETRS Iterations
 RTBSE|            1210     0.19895956E-007     0.10000000E+002                7
 RTBSE| Simulation step         Convergence     Electron number  ETRS Iterations
 RTBSE|            1211     0.14521345E-007     0.10000000E+002                7
 RTBSE| Simulation step         Convergence     Electron number  ETRS Iterations
 RTBSE|            1212     0.64882699E-007     0.10000000E+002                6
 RTBSE| Simulation step         Convergence     Electron number  ETRS Iterations
 RTBSE|            1213     0.45527915E-007     0.10000000E+002                6
 RTBSE| Simulation step         Convergence     Electron number  ETRS Iterations
 RTBSE|            1214     0.67192288E-007     0.10000000E+002                6
 RTBSE| Simulation step         Convergence     Electron number  ETRS Iterations
 RTBSE|            1215     0.82308053E-007     0.10000000E+002                6
 RTBSE| Simulation step         Convergence     Electron number  ETRS Iterations
 RTBSE|            1216     0.88730345E-007     0.10000000E+002                6
 RTBSE| Simulation step         Convergence     Electron number  ETRS Iterations
 RTBSE|            1217     0.86868026E-007     0.10000000E+002                6
 RTBSE| Simulation step         Convergence     Electron number  ETRS Iterations
 RTBSE|            1218     0.78414161E-007     0.10000000E+002                6
 RTBSE| Simulation step         Convergence     Electron number  ETRS Iterations
 RTBSE|            1219     0.65898126E-007     0.10000000E+002                6
 RTBSE| Simulation step         Convergence     Electron number  ETRS Iterations
 RTBSE|            1220     0.52303798E-007     0.10000000E+002                6
 RTBSE| Simulation step         Convergence     Electron number  ETRS Iterations
 RTBSE|            1221     0.40538556E-007     0.10000000E+002                6
 RTBSE| Simulation step         Convergence     Electron number  ETRS Iterations
 RTBSE|            1222     0.33190531E-007     0.10000000E+002                6
 RTBSE| Simulation step         Convergence     Electron number  ETRS Iterations
 RTBSE|            1223     0.32120968E-007     0.10000000E+002                6
 RTBSE| Simulation step         Convergence     Electron number  ETRS Iterations
 RTBSE|            1224     0.38001257E-007     0.10000000E+002                6
 RTBSE| Simulation step         Convergence     Electron number  ETRS Iterations
 RTBSE|            1225     0.50603142E-007     0.10000000E+002                6
 RTBSE| Simulation step         Convergence     Electron number  ETRS Iterations
 RTBSE|            1226     0.68844637E-007     0.10000000E+002                6
 RTBSE| Simulation step         Convergence     Electron number  ETRS Iterations
 RTBSE|            1227     0.91008571E-007     0.10000000E+002                6
 RTBSE| Simulation step         Convergence     Electron number  ETRS Iterations
 RTBSE|            1228     0.18951648E-007     0.10000000E+002                7
 RTBSE| Simulation step         Convergence     Electron number  ETRS Iterations
 RTBSE|            1229     0.22980252E-007     0.10000000E+002                7
 RTBSE| Simulation step         Convergence     Electron number  ETRS Iterations
 RTBSE|            1230     0.26419052E-007     0.10000000E+002                7
 RTBSE| Simulation step         Convergence     Electron number  ETRS Iterations
 RTBSE|            1231     0.28784082E-007     0.10000000E+002                7
 RTBSE| Simulation step         Convergence     Electron number  ETRS Iterations
 RTBSE|            1232     0.29612230E-007     0.10000000E+002                7
 RTBSE| Simulation step         Convergence     Electron number  ETRS Iterations
 RTBSE|            1233     0.28480062E-007     0.10000000E+002                7
 RTBSE| Simulation step         Convergence     Electron number  ETRS Iterations
 RTBSE|            1234     0.25197284E-007     0.10000000E+002                7
 RTBSE| Simulation step         Convergence     Electron number  ETRS Iterations
 RTBSE|            1235     0.21194907E-007     0.10000000E+002                7
 RTBSE| Simulation step         Convergence     Electron number  ETRS Iterations
 RTBSE|            1236     0.16945002E-007     0.10000000E+002                7
 RTBSE| Simulation step         Convergence     Electron number  ETRS Iterations
 RTBSE|            1237     0.85539667E-007     0.10000000E+002                6
 RTBSE| Simulation step         Convergence     Electron number  ETRS Iterations
 RTBSE|            1238     0.50591298E-007     0.10000000E+002                6
 RTBSE| Simulation step         Convergence     Electron number  ETRS Iterations
 RTBSE|            1239     0.79861751E-007     0.10000000E+002                6
 RTBSE| Simulation step         Convergence     Electron number  ETRS Iterations
 RTBSE|            1240     0.19145586E-007     0.10000000E+002                7
 RTBSE| Simulation step         Convergence     Electron number  ETRS Iterations
 RTBSE|            1241     0.23406542E-007     0.10000000E+002                7
 RTBSE| Simulation step         Convergence     Electron number  ETRS Iterations
 RTBSE|            1242     0.25422741E-007     0.10000000E+002                7
 RTBSE| Simulation step         Convergence     Electron number  ETRS Iterations
 RTBSE|            1243     0.25387972E-007     0.10000000E+002                7
 RTBSE| Simulation step         Convergence     Electron number  ETRS Iterations
 RTBSE|            1244     0.23820744E-007     0.10000000E+002                7
 RTBSE| Simulation step         Convergence     Electron number  ETRS Iterations
 RTBSE|            1245     0.21445882E-007     0.10000000E+002                7
 RTBSE| Simulation step         Convergence     Electron number  ETRS Iterations
 RTBSE|            1246     0.19080791E-007     0.10000000E+002                7
 RTBSE| Simulation step         Convergence     Electron number  ETRS Iterations
 RTBSE|            1247     0.17521283E-007     0.10000000E+002                7
 RTBSE| Simulation step         Convergence     Electron number  ETRS Iterations
 RTBSE|            1248     0.17329916E-007     0.10000000E+002                7
 RTBSE| Simulation step         Convergence     Electron number  ETRS Iterations
 RTBSE|            1249     0.18919038E-007     0.10000000E+002                7
 RTBSE| Simulation step         Convergence     Electron number  ETRS Iterations
 RTBSE|            1250     0.22373763E-007     0.10000000E+002                7
 RTBSE| Simulation step         Convergence     Electron number  ETRS Iterations
 RTBSE|            1251     0.27449778E-007     0.10000000E+002                7
 RTBSE| Simulation step         Convergence     Electron number  ETRS Iterations
 RTBSE|            1252     0.33528916E-007     0.10000000E+002                7
 RTBSE| Simulation step         Convergence     Electron number  ETRS Iterations
 RTBSE|            1253     0.39701087E-007     0.10000000E+002                7
 RTBSE| Simulation step         Convergence     Electron number  ETRS Iterations
 RTBSE|            1254     0.44894882E-007     0.10000000E+002                7
 RTBSE| Simulation step         Convergence     Electron number  ETRS Iterations
 RTBSE|            1255     0.48152676E-007     0.10000000E+002                7
 RTBSE| Simulation step         Convergence     Electron number  ETRS Iterations
 RTBSE|            1256     0.48864409E-007     0.10000000E+002                7
 RTBSE| Simulation step         Convergence     Electron number  ETRS Iterations
 RTBSE|            1257     0.46864116E-007     0.10000000E+002                7
 RTBSE| Simulation step         Convergence     Electron number  ETRS Iterations
 RTBSE|            1258     0.42419147E-007     0.10000000E+002                7
 RTBSE| Simulation step         Convergence     Electron number  ETRS Iterations
 RTBSE|            1259     0.36048886E-007     0.10000000E+002                7
 RTBSE| Simulation step         Convergence     Electron number  ETRS Iterations
 RTBSE|            1260     0.28449964E-007     0.10000000E+002                7
 RTBSE| Simulation step         Convergence     Electron number  ETRS Iterations
 RTBSE|            1261     0.21706660E-007     0.10000000E+002                7
 RTBSE| Simulation step         Convergence     Electron number  ETRS Iterations
 RTBSE|            1262     0.16663406E-007     0.10000000E+002                7
 RTBSE| Simulation step         Convergence     Electron number  ETRS Iterations
 RTBSE|            1263     0.84442634E-007     0.10000000E+002                6
 RTBSE| Simulation step         Convergence     Electron number  ETRS Iterations
 RTBSE|            1264     0.47398022E-007     0.10000000E+002                6
 RTBSE| Simulation step         Convergence     Electron number  ETRS Iterations
 RTBSE|            1265     0.47585106E-007     0.10000000E+002                6
 RTBSE| Simulation step         Convergence     Electron number  ETRS Iterations
 RTBSE|            1266     0.62881416E-007     0.10000000E+002                6
 RTBSE| Simulation step         Convergence     Electron number  ETRS Iterations
 RTBSE|            1267     0.70981383E-007     0.10000000E+002                6
 RTBSE| Simulation step         Convergence     Electron number  ETRS Iterations
 RTBSE|            1268     0.71543219E-007     0.10000000E+002                6
 RTBSE| Simulation step         Convergence     Electron number  ETRS Iterations
 RTBSE|            1269     0.66015664E-007     0.10000000E+002                6
 RTBSE| Simulation step         Convergence     Electron number  ETRS Iterations
 RTBSE|            1270     0.56670800E-007     0.10000000E+002                6
 RTBSE| Simulation step         Convergence     Electron number  ETRS Iterations
 RTBSE|            1271     0.46280992E-007     0.10000000E+002                6
 RTBSE| Simulation step         Convergence     Electron number  ETRS Iterations
 RTBSE|            1272     0.37702619E-007     0.10000000E+002                6
 RTBSE| Simulation step         Convergence     Electron number  ETRS Iterations
 RTBSE|            1273     0.33292980E-007     0.10000000E+002                6
 RTBSE| Simulation step         Convergence     Electron number  ETRS Iterations
 RTBSE|            1274     0.34631168E-007     0.10000000E+002                6
 RTBSE| Simulation step         Convergence     Electron number  ETRS Iterations
 RTBSE|            1275     0.42243654E-007     0.10000000E+002                6
 RTBSE| Simulation step         Convergence     Electron number  ETRS Iterations
 RTBSE|            1276     0.55917849E-007     0.10000000E+002                6
 RTBSE| Simulation step         Convergence     Electron number  ETRS Iterations
 RTBSE|            1277     0.74732988E-007     0.10000000E+002                6
 RTBSE| Simulation step         Convergence     Electron number  ETRS Iterations
 RTBSE|            1278     0.97072424E-007     0.10000000E+002                6
 RTBSE| Simulation step         Convergence     Electron number  ETRS Iterations
 RTBSE|            1279     0.19812843E-007     0.10000000E+002                7
 RTBSE| Simulation step         Convergence     Electron number  ETRS Iterations
 RTBSE|            1280     0.23800013E-007     0.10000000E+002                7
 RTBSE| Simulation step         Convergence     Electron number  ETRS Iterations
 RTBSE|            1281     0.27201316E-007     0.10000000E+002                7
 RTBSE| Simulation step         Convergence     Electron number  ETRS Iterations
 RTBSE|            1282     0.29547691E-007     0.10000000E+002                7
 RTBSE| Simulation step         Convergence     Electron number  ETRS Iterations
 RTBSE|            1283     0.30394290E-007     0.10000000E+002                7
 RTBSE| Simulation step         Convergence     Electron number  ETRS Iterations
 RTBSE|            1284     0.29411175E-007     0.10000000E+002                7
 RTBSE| Simulation step         Convergence     Electron number  ETRS Iterations
 RTBSE|            1285     0.26355037E-007     0.10000000E+002                7
 RTBSE| Simulation step         Convergence     Electron number  ETRS Iterations
 RTBSE|            1286     0.21911366E-007     0.10000000E+002                7
 RTBSE| Simulation step         Convergence     Electron number  ETRS Iterations
 RTBSE|            1287     0.17889220E-007     0.10000000E+002                7
 RTBSE| Simulation step         Convergence     Electron number  ETRS Iterations
 RTBSE|            1288     0.93448093E-007     0.10000000E+002                6
 RTBSE| Simulation step         Convergence     Electron number  ETRS Iterations
 RTBSE|            1289     0.53219050E-007     0.10000000E+002                6
 RTBSE| Simulation step         Convergence     Electron number  ETRS Iterations
 RTBSE|            1290     0.66540800E-007     0.10000000E+002                6
 RTBSE| Simulation step         Convergence     Electron number  ETRS Iterations
 RTBSE|            1291     0.89374488E-007     0.10000000E+002                6
 RTBSE| Simulation step         Convergence     Electron number  ETRS Iterations
 RTBSE|            1292     0.19870259E-007     0.10000000E+002                7
 RTBSE| Simulation step         Convergence     Electron number  ETRS Iterations
 RTBSE|            1293     0.21946719E-007     0.10000000E+002                7
 RTBSE| Simulation step         Convergence     Electron number  ETRS Iterations
 RTBSE|            1294     0.22136794E-007     0.10000000E+002                7
 RTBSE| Simulation step         Convergence     Electron number  ETRS Iterations
 RTBSE|            1295     0.20893959E-007     0.10000000E+002                7
 RTBSE| Simulation step         Convergence     Electron number  ETRS Iterations
 RTBSE|            1296     0.18941277E-007     0.10000000E+002                7
 RTBSE| Simulation step         Convergence     Electron number  ETRS Iterations
 RTBSE|            1297     0.98949008E-007     0.10000000E+002                6
 RTBSE| Simulation step         Convergence     Electron number  ETRS Iterations
 RTBSE|            1298     0.94517307E-007     0.10000000E+002                6
 RTBSE| Simulation step         Convergence     Electron number  ETRS Iterations
 RTBSE|            1299     0.97592307E-007     0.10000000E+002                6
 RTBSE| Simulation step         Convergence     Electron number  ETRS Iterations
 RTBSE|            1300     0.17794053E-007     0.10000000E+002                7
 RTBSE| Simulation step         Convergence     Electron number  ETRS Iterations
 RTBSE|            1301     0.21409023E-007     0.10000000E+002                7
 RTBSE| Simulation step         Convergence     Electron number  ETRS Iterations
 RTBSE|            1302     0.26637941E-007     0.10000000E+002                7
 RTBSE| Simulation step         Convergence     Electron number  ETRS Iterations
 RTBSE|            1303     0.32911950E-007     0.10000000E+002                7
 RTBSE| Simulation step         Convergence     Electron number  ETRS Iterations
 RTBSE|            1304     0.39386072E-007     0.10000000E+002                7
 RTBSE| Simulation step         Convergence     Electron number  ETRS Iterations
 RTBSE|            1305     0.45089987E-007     0.10000000E+002                7
 RTBSE| Simulation step         Convergence     Electron number  ETRS Iterations
 RTBSE|            1306     0.49053330E-007     0.10000000E+002                7
 RTBSE| Simulation step         Convergence     Electron number  ETRS Iterations
 RTBSE|            1307     0.50619915E-007     0.10000000E+002                7
 RTBSE| Simulation step         Convergence     Electron number  ETRS Iterations
 RTBSE|            1308     0.49510437E-007     0.10000000E+002                7
 RTBSE| Simulation step         Convergence     Electron number  ETRS Iterations
 RTBSE|            1309     0.45893857E-007     0.10000000E+002                7
 RTBSE| Simulation step         Convergence     Electron number  ETRS Iterations
 RTBSE|            1310     0.40207837E-007     0.10000000E+002                7
 RTBSE| Simulation step         Convergence     Electron number  ETRS Iterations
 RTBSE|            1311     0.33113003E-007     0.10000000E+002                7
 RTBSE| Simulation step         Convergence     Electron number  ETRS Iterations
 RTBSE|            1312     0.25286966E-007     0.10000000E+002                7
 RTBSE| Simulation step         Convergence     Electron number  ETRS Iterations
 RTBSE|            1313     0.19587017E-007     0.10000000E+002                7
 RTBSE| Simulation step         Convergence     Electron number  ETRS Iterations
 RTBSE|            1314     0.14686780E-007     0.10000000E+002                7
 RTBSE| Simulation step         Convergence     Electron number  ETRS Iterations
 RTBSE|            1315     0.73288211E-007     0.10000000E+002                6
 RTBSE| Simulation step         Convergence     Electron number  ETRS Iterations
 RTBSE|            1316     0.40283411E-007     0.10000000E+002                6
 RTBSE| Simulation step         Convergence     Electron number  ETRS Iterations
 RTBSE|            1317     0.44412427E-007     0.10000000E+002                6
 RTBSE| Simulation step         Convergence     Electron number  ETRS Iterations
 RTBSE|            1318     0.54975660E-007     0.10000000E+002                6
 RTBSE| Simulation step         Convergence     Electron number  ETRS Iterations
 RTBSE|            1319     0.59398109E-007     0.10000000E+002                6
 RTBSE| Simulation step         Convergence     Electron number  ETRS Iterations
 RTBSE|            1320     0.58318533E-007     0.10000000E+002                6
 RTBSE| Simulation step         Convergence     Electron number  ETRS Iterations
 RTBSE|            1321     0.53525714E-007     0.10000000E+002                6
 RTBSE| Simulation step         Convergence     Electron number  ETRS Iterations
 RTBSE|            1322     0.47397834E-007     0.10000000E+002                6
 RTBSE| Simulation step         Convergence     Electron number  ETRS Iterations
 RTBSE|            1323     0.42323263E-007     0.10000000E+002                6
 RTBSE| Simulation step         Convergence     Electron number  ETRS Iterations
 RTBSE|            1324     0.40366277E-007     0.10000000E+002                6
 RTBSE| Simulation step         Convergence     Electron number  ETRS Iterations
 RTBSE|            1325     0.42867321E-007     0.10000000E+002                6
 RTBSE| Simulation step         Convergence     Electron number  ETRS Iterations
 RTBSE|            1326     0.50430320E-007     0.10000000E+002                6
 RTBSE| Simulation step         Convergence     Electron number  ETRS Iterations
 RTBSE|            1327     0.63063876E-007     0.10000000E+002                6
 RTBSE| Simulation step         Convergence     Electron number  ETRS Iterations
 RTBSE|            1328     0.79968436E-007     0.10000000E+002                6
 RTBSE| Simulation step         Convergence     Electron number  ETRS Iterations
 RTBSE|            1329     0.99818597E-007     0.10000000E+002                6
 RTBSE| Simulation step         Convergence     Electron number  ETRS Iterations
 RTBSE|            1330     0.19818331E-007     0.10000000E+002                7
 RTBSE| Simulation step         Convergence     Electron number  ETRS Iterations
 RTBSE|            1331     0.23340127E-007     0.10000000E+002                7
 RTBSE| Simulation step         Convergence     Electron number  ETRS Iterations
 RTBSE|            1332     0.26359274E-007     0.10000000E+002                7
 RTBSE| Simulation step         Convergence     Electron number  ETRS Iterations
 RTBSE|            1333     0.28496558E-007     0.10000000E+002                7
 RTBSE| Simulation step         Convergence     Electron number  ETRS Iterations
 RTBSE|            1334     0.29338946E-007     0.10000000E+002                7
 RTBSE| Simulation step         Convergence     Electron number  ETRS Iterations
 RTBSE|            1335     0.28584308E-007     0.10000000E+002                7
 RTBSE| Simulation step         Convergence     Electron number  ETRS Iterations
 RTBSE|            1336     0.26040125E-007     0.10000000E+002                7
 RTBSE| Simulation step         Convergence     Electron number  ETRS Iterations
 RTBSE|            1337     0.21698256E-007     0.10000000E+002                7
 RTBSE| Simulation step         Convergence     Electron number  ETRS Iterations
 RTBSE|            1338     0.18081211E-007     0.10000000E+002                7
 RTBSE| Simulation step         Convergence     Electron number  ETRS Iterations
 RTBSE|            1339     0.99395557E-007     0.10000000E+002                6
 RTBSE| Simulation step         Convergence     Electron number  ETRS Iterations
 RTBSE|            1340     0.65109421E-007     0.10000000E+002                6
 RTBSE| Simulation step         Convergence     Electron number  ETRS Iterations
 RTBSE|            1341     0.48270652E-007     0.10000000E+002                6
 RTBSE| Simulation step         Convergence     Electron number  ETRS Iterations
 RTBSE|            1342     0.68858245E-007     0.10000000E+002                6
 RTBSE| Simulation step         Convergence     Electron number  ETRS Iterations
 RTBSE|            1343     0.85359499E-007     0.10000000E+002                6
 RTBSE| Simulation step         Convergence     Electron number  ETRS Iterations
 RTBSE|            1344     0.96844123E-007     0.10000000E+002                6
 RTBSE| Simulation step         Convergence     Electron number  ETRS Iterations
 RTBSE|            1345     0.18127163E-007     0.10000000E+002                7
 RTBSE| Simulation step         Convergence     Electron number  ETRS Iterations
 RTBSE|            1346     0.98400305E-007     0.10000000E+002                6
 RTBSE| Simulation step         Convergence     Electron number  ETRS Iterations
 RTBSE|            1347     0.92472995E-007     0.10000000E+002                6
 RTBSE| Simulation step         Convergence     Electron number  ETRS Iterations
 RTBSE|            1348     0.86459587E-007     0.10000000E+002                6
 RTBSE| Simulation step         Convergence     Electron number  ETRS Iterations
 RTBSE|            1349     0.84127003E-007     0.10000000E+002                6
 RTBSE| Simulation step         Convergence     Electron number  ETRS Iterations
 RTBSE|            1350     0.88541616E-007     0.10000000E+002                6
 RTBSE| Simulation step         Convergence     Electron number  ETRS Iterations
 RTBSE|            1351     0.16060194E-007     0.10000000E+002                7
 RTBSE| Simulation step         Convergence     Electron number  ETRS Iterations
 RTBSE|            1352     0.19728493E-007     0.10000000E+002                7
 RTBSE| Simulation step         Convergence     Electron number  ETRS Iterations
 RTBSE|            1353     0.25052022E-007     0.10000000E+002                7
 RTBSE| Simulation step         Convergence     Electron number  ETRS Iterations
 RTBSE|            1354     0.31591200E-007     0.10000000E+002                7
 RTBSE| Simulation step         Convergence     Electron number  ETRS Iterations
 RTBSE|            1355     0.38594592E-007     0.10000000E+002                7
 RTBSE| Simulation step         Convergence     Electron number  ETRS Iterations
 RTBSE|            1356     0.45081964E-007     0.10000000E+002                7
 RTBSE| Simulation step         Convergence     Electron number  ETRS Iterations
 RTBSE|            1357     0.50065071E-007     0.10000000E+002                7
 RTBSE| Simulation step         Convergence     Electron number  ETRS Iterations
 RTBSE|            1358     0.52758792E-007     0.10000000E+002                7
 RTBSE| Simulation step         Convergence     Electron number  ETRS Iterations
 RTBSE|            1359     0.52771588E-007     0.10000000E+002                7
 RTBSE| Simulation step         Convergence     Electron number  ETRS Iterations
 RTBSE|            1360     0.50093765E-007     0.10000000E+002                7
 RTBSE| Simulation step         Convergence     Electron number  ETRS Iterations
 RTBSE|            1361     0.45125074E-007     0.10000000E+002                7
 RTBSE| Simulation step         Convergence     Electron number  ETRS Iterations
 RTBSE|            1362     0.38443808E-007     0.10000000E+002                7
 RTBSE| Simulation step         Convergence     Electron number  ETRS Iterations
 RTBSE|            1363     0.30742100E-007     0.10000000E+002                7
 RTBSE| Simulation step         Convergence     Electron number  ETRS Iterations
 RTBSE|            1364     0.22796835E-007     0.10000000E+002                7
 RTBSE| Simulation step         Convergence     Electron number  ETRS Iterations
 RTBSE|            1365     0.18136514E-007     0.10000000E+002                7
 RTBSE| Simulation step         Convergence     Electron number  ETRS Iterations
 RTBSE|            1366     0.13433284E-007     0.10000000E+002                7
 RTBSE| Simulation step         Convergence     Electron number  ETRS Iterations
 RTBSE|            1367     0.65814912E-007     0.10000000E+002                6
 RTBSE| Simulation step         Convergence     Electron number  ETRS Iterations
 RTBSE|            1368     0.36235277E-007     0.10000000E+002                6
 RTBSE| Simulation step         Convergence     Electron number  ETRS Iterations
 RTBSE|            1369     0.42447446E-007     0.10000000E+002                6
 RTBSE| Simulation step         Convergence     Electron number  ETRS Iterations
 RTBSE|            1370     0.50819814E-007     0.10000000E+002                6
 RTBSE| Simulation step         Convergence     Electron number  ETRS Iterations
 RTBSE|            1371     0.54351556E-007     0.10000000E+002                6
 RTBSE| Simulation step         Convergence     Electron number  ETRS Iterations
 RTBSE|            1372     0.54039312E-007     0.10000000E+002                6
 RTBSE| Simulation step         Convergence     Electron number  ETRS Iterations
 RTBSE|            1373     0.51560628E-007     0.10000000E+002                6
 RTBSE| Simulation step         Convergence     Electron number  ETRS Iterations
 RTBSE|            1374     0.48896417E-007     0.10000000E+002                6
 RTBSE| Simulation step         Convergence     Electron number  ETRS Iterations
 RTBSE|            1375     0.47865632E-007     0.10000000E+002                6
 RTBSE| Simulation step         Convergence     Electron number  ETRS Iterations
 RTBSE|            1376     0.49767596E-007     0.10000000E+002                6
 RTBSE| Simulation step         Convergence     Electron number  ETRS Iterations
 RTBSE|            1377     0.55494951E-007     0.10000000E+002                6
 RTBSE| Simulation step         Convergence     Electron number  ETRS Iterations
 RTBSE|            1378     0.65275267E-007     0.10000000E+002                6
 RTBSE| Simulation step         Convergence     Electron number  ETRS Iterations
 RTBSE|            1379     0.78771322E-007     0.10000000E+002                6
 RTBSE| Simulation step         Convergence     Electron number  ETRS Iterations
 RTBSE|            1380     0.95125898E-007     0.10000000E+002                6
 RTBSE| Simulation step         Convergence     Electron number  ETRS Iterations
 RTBSE|            1381     0.18496594E-007     0.10000000E+002                7
 RTBSE| Simulation step         Convergence     Electron number  ETRS Iterations
 RTBSE|            1382     0.21584463E-007     0.10000000E+002                7
 RTBSE| Simulation step         Convergence     Electron number  ETRS Iterations
 RTBSE|            1383     0.24362864E-007     0.10000000E+002                7
 RTBSE| Simulation step         Convergence     Electron number  ETRS Iterations
 RTBSE|            1384     0.26478601E-007     0.10000000E+002                7
 RTBSE| Simulation step         Convergence     Electron number  ETRS Iterations
 RTBSE|            1385     0.27591482E-007     0.10000000E+002                7
 RTBSE| Simulation step         Convergence     Electron number  ETRS Iterations
 RTBSE|            1386     0.27393830E-007     0.10000000E+002                7
 RTBSE| Simulation step         Convergence     Electron number  ETRS Iterations
 RTBSE|            1387     0.25718412E-007     0.10000000E+002                7
 RTBSE| Simulation step         Convergence     Electron number  ETRS Iterations
 RTBSE|            1388     0.22492463E-007     0.10000000E+002                7
 RTBSE| Simulation step         Convergence     Electron number  ETRS Iterations
 RTBSE|            1389     0.18584243E-007     0.10000000E+002                7
 RTBSE| Simulation step         Convergence     Electron number  ETRS Iterations
 RTBSE|            1390     0.15112217E-007     0.10000000E+002                7
 RTBSE| Simulation step         Convergence     Electron number  ETRS Iterations
 RTBSE|            1391     0.81182789E-007     0.10000000E+002                6
 RTBSE| Simulation step         Convergence     Electron number  ETRS Iterations
 RTBSE|            1392     0.51975181E-007     0.10000000E+002                6
 RTBSE| Simulation step         Convergence     Electron number  ETRS Iterations
 RTBSE|            1393     0.44465586E-007     0.10000000E+002                6
 RTBSE| Simulation step         Convergence     Electron number  ETRS Iterations
 RTBSE|            1394     0.58618311E-007     0.10000000E+002                6
 RTBSE| Simulation step         Convergence     Electron number  ETRS Iterations
 RTBSE|            1395     0.70024607E-007     0.10000000E+002                6
 RTBSE| Simulation step         Convergence     Electron number  ETRS Iterations
 RTBSE|            1396     0.75875011E-007     0.10000000E+002                6
 RTBSE| Simulation step         Convergence     Electron number  ETRS Iterations
 RTBSE|            1397     0.76537217E-007     0.10000000E+002                6
 RTBSE| Simulation step         Convergence     Electron number  ETRS Iterations
 RTBSE|            1398     0.74066765E-007     0.10000000E+002                6
 RTBSE| Simulation step         Convergence     Electron number  ETRS Iterations
 RTBSE|            1399     0.71695520E-007     0.10000000E+002                6
 RTBSE| Simulation step         Convergence     Electron number  ETRS Iterations
 RTBSE|            1400     0.72781840E-007     0.10000000E+002                6
 RTBSE| Simulation step         Convergence     Electron number  ETRS Iterations
 RTBSE|            1401     0.80341376E-007     0.10000000E+002                6
 RTBSE| Simulation step         Convergence     Electron number  ETRS Iterations
 RTBSE|            1402     0.96244920E-007     0.10000000E+002                6
 RTBSE| Simulation step         Convergence     Electron number  ETRS Iterations
 RTBSE|            1403     0.18885714E-007     0.10000000E+002                7
 RTBSE| Simulation step         Convergence     Electron number  ETRS Iterations
 RTBSE|            1404     0.24739455E-007     0.10000000E+002                7
 RTBSE| Simulation step         Convergence     Electron number  ETRS Iterations
 RTBSE|            1405     0.31862178E-007     0.10000000E+002                7
 RTBSE| Simulation step         Convergence     Electron number  ETRS Iterations
 RTBSE|            1406     0.39503280E-007     0.10000000E+002                7
 RTBSE| Simulation step         Convergence     Electron number  ETRS Iterations
 RTBSE|            1407     0.46720103E-007     0.10000000E+002                7
 RTBSE| Simulation step         Convergence     Electron number  ETRS Iterations
 RTBSE|            1408     0.52475337E-007     0.10000000E+002                7
 RTBSE| Simulation step         Convergence     Electron number  ETRS Iterations
 RTBSE|            1409     0.55916942E-007     0.10000000E+002                7
 RTBSE| Simulation step         Convergence     Electron number  ETRS Iterations
 RTBSE|            1410     0.56570041E-007     0.10000000E+002                7
 RTBSE| Simulation step         Convergence     Electron number  ETRS Iterations
 RTBSE|            1411     0.54389602E-007     0.10000000E+002                7
 RTBSE| Simulation step         Convergence     Electron number  ETRS Iterations
 RTBSE|            1412     0.49691422E-007     0.10000000E+002                7
 RTBSE| Simulation step         Convergence     Electron number  ETRS Iterations
 RTBSE|            1413     0.43096273E-007     0.10000000E+002                7
 RTBSE| Simulation step         Convergence     Electron number  ETRS Iterations
 RTBSE|            1414     0.35345655E-007     0.10000000E+002                7
 RTBSE| Simulation step         Convergence     Electron number  ETRS Iterations
 RTBSE|            1415     0.27141574E-007     0.10000000E+002                7
 RTBSE| Simulation step         Convergence     Electron number  ETRS Iterations
 RTBSE|            1416     0.20838689E-007     0.10000000E+002                7
 RTBSE| Simulation step         Convergence     Electron number  ETRS Iterations
 RTBSE|            1417     0.16064179E-007     0.10000000E+002                7
 RTBSE| Simulation step         Convergence     Electron number  ETRS Iterations
 RTBSE|            1418     0.84571612E-007     0.10000000E+002                6
 RTBSE| Simulation step         Convergence     Electron number  ETRS Iterations
 RTBSE|            1419     0.52407023E-007     0.10000000E+002                6
 RTBSE| Simulation step         Convergence     Electron number  ETRS Iterations
 RTBSE|            1420     0.34367972E-007     0.10000000E+002                6
 RTBSE| Simulation step         Convergence     Electron number  ETRS Iterations
 RTBSE|            1421     0.44247041E-007     0.10000000E+002                6
 RTBSE| Simulation step         Convergence     Electron number  ETRS Iterations
 RTBSE|            1422     0.50174437E-007     0.10000000E+002                6
 RTBSE| Simulation step         Convergence     Electron number  ETRS Iterations
 RTBSE|            1423     0.52035273E-007     0.10000000E+002                6
 RTBSE| Simulation step         Convergence     Electron number  ETRS Iterations
 RTBSE|            1424     0.51038812E-007     0.10000000E+002                6
 RTBSE| Simulation step         Convergence     Electron number  ETRS Iterations
 RTBSE|            1425     0.49014810E-007     0.10000000E+002                6
 RTBSE| Simulation step         Convergence     Electron number  ETRS Iterations
 RTBSE|            1426     0.47771131E-007     0.10000000E+002                6
 RTBSE| Simulation step         Convergence     Electron number  ETRS Iterations
 RTBSE|            1427     0.48800010E-007     0.10000000E+002                6
 RTBSE| Simulation step         Convergence     Electron number  ETRS Iterations
 RTBSE|            1428     0.53107473E-007     0.10000000E+002                6
 RTBSE| Simulation step         Convergence     Electron number  ETRS Iterations
 RTBSE|            1429     0.61190967E-007     0.10000000E+002                6
 RTBSE| Simulation step         Convergence     Electron number  ETRS Iterations
 RTBSE|            1430     0.72852723E-007     0.10000000E+002                6
 RTBSE| Simulation step         Convergence     Electron number  ETRS Iterations
 RTBSE|            1431     0.87586567E-007     0.10000000E+002                6
 RTBSE| Simulation step         Convergence     Electron number  ETRS Iterations
 RTBSE|            1432     0.16914202E-007     0.10000000E+002                7
 RTBSE| Simulation step         Convergence     Electron number  ETRS Iterations
 RTBSE|            1433     0.19877181E-007     0.10000000E+002                7
 RTBSE| Simulation step         Convergence     Electron number  ETRS Iterations
 RTBSE|            1434     0.22632033E-007     0.10000000E+002                7
 RTBSE| Simulation step         Convergence     Electron number  ETRS Iterations
 RTBSE|            1435     0.24910506E-007     0.10000000E+002                7
 RTBSE| Simulation step         Convergence     Electron number  ETRS Iterations
 RTBSE|            1436     0.26368662E-007     0.10000000E+002                7
 RTBSE| Simulation step         Convergence     Electron number  ETRS Iterations
 RTBSE|            1437     0.26744760E-007     0.10000000E+002                7
 RTBSE| Simulation step         Convergence     Electron number  ETRS Iterations
 RTBSE|            1438     0.25832009E-007     0.10000000E+002                7
 RTBSE| Simulation step         Convergence     Electron number  ETRS Iterations
 RTBSE|            1439     0.23572526E-007     0.10000000E+002                7
 RTBSE| Simulation step         Convergence     Electron number  ETRS Iterations
 RTBSE|            1440     0.20014014E-007     0.10000000E+002                7
 RTBSE| Simulation step         Convergence     Electron number  ETRS Iterations
 RTBSE|            1441     0.16657403E-007     0.10000000E+002                7
 RTBSE| Simulation step         Convergence     Electron number  ETRS Iterations
 RTBSE|            1442     0.96818808E-007     0.10000000E+002                6
 RTBSE| Simulation step         Convergence     Electron number  ETRS Iterations
 RTBSE|            1443     0.73367479E-007     0.10000000E+002                6
 RTBSE| Simulation step         Convergence     Electron number  ETRS Iterations
 RTBSE|            1444     0.50061415E-007     0.10000000E+002                6
 RTBSE| Simulation step         Convergence     Electron number  ETRS Iterations
 RTBSE|            1445     0.34606598E-007     0.10000000E+002                6
 RTBSE| Simulation step         Convergence     Electron number  ETRS Iterations
 RTBSE|            1446     0.44445288E-007     0.10000000E+002                6
 RTBSE| Simulation step         Convergence     Electron number  ETRS Iterations
 RTBSE|            1447     0.51241439E-007     0.10000000E+002                6
 RTBSE| Simulation step         Convergence     Electron number  ETRS Iterations
 RTBSE|            1448     0.54634459E-007     0.10000000E+002                6
 RTBSE| Simulation step         Convergence     Electron number  ETRS Iterations
 RTBSE|            1449     0.56304902E-007     0.10000000E+002                6
 RTBSE| Simulation step         Convergence     Electron number  ETRS Iterations
 RTBSE|            1450     0.58666005E-007     0.10000000E+002                6
 RTBSE| Simulation step         Convergence     Electron number  ETRS Iterations
 RTBSE|            1451     0.64602867E-007     0.10000000E+002                6
 RTBSE| Simulation step         Convergence     Electron number  ETRS Iterations
 RTBSE|            1452     0.76490186E-007     0.10000000E+002                6
 RTBSE| Simulation step         Convergence     Electron number  ETRS Iterations
 RTBSE|            1453     0.96103341E-007     0.10000000E+002                6
 RTBSE| Simulation step         Convergence     Electron number  ETRS Iterations
 RTBSE|            1454     0.19171964E-007     0.10000000E+002                7
 RTBSE| Simulation step         Convergence     Electron number  ETRS Iterations
 RTBSE|            1455     0.25549885E-007     0.10000000E+002                7
 RTBSE| Simulation step         Convergence     Electron number  ETRS Iterations
 RTBSE|            1456     0.33051614E-007     0.10000000E+002                7
 RTBSE| Simulation step         Convergence     Electron number  ETRS Iterations
 RTBSE|            1457     0.41034401E-007     0.10000000E+002                7
 RTBSE| Simulation step         Convergence     Electron number  ETRS Iterations
 RTBSE|            1458     0.48519639E-007     0.10000000E+002                7
 RTBSE| Simulation step         Convergence     Electron number  ETRS Iterations
 RTBSE|            1459     0.54536301E-007     0.10000000E+002                7
 RTBSE| Simulation step         Convergence     Electron number  ETRS Iterations
 RTBSE|            1460     0.58257373E-007     0.10000000E+002                7
 RTBSE| Simulation step         Convergence     Electron number  ETRS Iterations
 RTBSE|            1461     0.59156989E-007     0.10000000E+002                7
 RTBSE| Simulation step         Convergence     Electron number  ETRS Iterations
 RTBSE|            1462     0.57192061E-007     0.10000000E+002                7
 RTBSE| Simulation step         Convergence     Electron number  ETRS Iterations
 RTBSE|            1463     0.52642092E-007     0.10000000E+002                7
 RTBSE| Simulation step         Convergence     Electron number  ETRS Iterations
 RTBSE|            1464     0.46115187E-007     0.10000000E+002                7
 RTBSE| Simulation step         Convergence     Electron number  ETRS Iterations
 RTBSE|            1465     0.38339774E-007     0.10000000E+002                7
 RTBSE| Simulation step         Convergence     Electron number  ETRS Iterations
 RTBSE|            1466     0.30044176E-007     0.10000000E+002                7
 RTBSE| Simulation step         Convergence     Electron number  ETRS Iterations
 RTBSE|            1467     0.22162457E-007     0.10000000E+002                7
 RTBSE| Simulation step         Convergence     Electron number  ETRS Iterations
 RTBSE|            1468     0.17439280E-007     0.10000000E+002                7
 RTBSE| Simulation step         Convergence     Electron number  ETRS Iterations
 RTBSE|            1469     0.96480551E-007     0.10000000E+002                6
 RTBSE| Simulation step         Convergence     Electron number  ETRS Iterations
 RTBSE|            1470     0.64084248E-007     0.10000000E+002                6
 RTBSE| Simulation step         Convergence     Electron number  ETRS Iterations
 RTBSE|            1471     0.37757180E-007     0.10000000E+002                6
 RTBSE| Simulation step         Convergence     Electron number  ETRS Iterations
 RTBSE|            1472     0.32266179E-007     0.10000000E+002                6
 RTBSE| Simulation step         Convergence     Electron number  ETRS Iterations
 RTBSE|            1473     0.37545603E-007     0.10000000E+002                6
 RTBSE| Simulation step         Convergence     Electron number  ETRS Iterations
 RTBSE|            1474     0.39529318E-007     0.10000000E+002                6
 RTBSE| Simulation step         Convergence     Electron number  ETRS Iterations
 RTBSE|            1475     0.39255407E-007     0.10000000E+002                6
 RTBSE| Simulation step         Convergence     Electron number  ETRS Iterations
 RTBSE|            1476     0.38405768E-007     0.10000000E+002                6
 RTBSE| Simulation step         Convergence     Electron number  ETRS Iterations
 RTBSE|            1477     0.38651606E-007     0.10000000E+002                6
 RTBSE| Simulation step         Convergence     Electron number  ETRS Iterations
 RTBSE|            1478     0.41231873E-007     0.10000000E+002                6
 RTBSE| Simulation step         Convergence     Electron number  ETRS Iterations
 RTBSE|            1479     0.46978363E-007     0.10000000E+002                6
 RTBSE| Simulation step         Convergence     Electron number  ETRS Iterations
 RTBSE|            1480     0.56181162E-007     0.10000000E+002                6
 RTBSE| Simulation step         Convergence     Electron number  ETRS Iterations
 RTBSE|            1481     0.68716470E-007     0.10000000E+002                6
 RTBSE| Simulation step         Convergence     Electron number  ETRS Iterations
 RTBSE|            1482     0.83946086E-007     0.10000000E+002                6
 RTBSE| Simulation step         Convergence     Electron number  ETRS Iterations
 RTBSE|            1483     0.16160392E-007     0.10000000E+002                7
 RTBSE| Simulation step         Convergence     Electron number  ETRS Iterations
 RTBSE|            1484     0.19105273E-007     0.10000000E+002                7
 RTBSE| Simulation step         Convergence     Electron number  ETRS Iterations
 RTBSE|            1485     0.21877347E-007     0.10000000E+002                7
 RTBSE| Simulation step         Convergence     Electron number  ETRS Iterations
 RTBSE|            1486     0.24173460E-007     0.10000000E+002                7
 RTBSE| Simulation step         Convergence     Electron number  ETRS Iterations
 RTBSE|            1487     0.25773288E-007     0.10000000E+002                7
 RTBSE| Simulation step         Convergence     Electron number  ETRS Iterations
 RTBSE|            1488     0.26433269E-007     0.10000000E+002                7
 RTBSE| Simulation step         Convergence     Electron number  ETRS Iterations
 RTBSE|            1489     0.26001278E-007     0.10000000E+002                7
 RTBSE| Simulation step         Convergence     Electron number  ETRS Iterations
 RTBSE|            1490     0.24410829E-007     0.10000000E+002                7
 RTBSE| Simulation step         Convergence     Electron number  ETRS Iterations
 RTBSE|            1491     0.21705273E-007     0.10000000E+002                7
 RTBSE| Simulation step         Convergence     Electron number  ETRS Iterations
 RTBSE|            1492     0.18143558E-007     0.10000000E+002                7
 RTBSE| Simulation step         Convergence     Electron number  ETRS Iterations
 RTBSE|            1493     0.15352377E-007     0.10000000E+002                7
 RTBSE| Simulation step         Convergence     Electron number  ETRS Iterations
 RTBSE|            1494     0.91639545E-007     0.10000000E+002                6
 RTBSE| Simulation step         Convergence     Electron number  ETRS Iterations
 RTBSE|            1495     0.73540174E-007     0.10000000E+002                6
 RTBSE| Simulation step         Convergence     Electron number  ETRS Iterations
 RTBSE|            1496     0.56802553E-007     0.10000000E+002                6
 RTBSE| Simulation step         Convergence     Electron number  ETRS Iterations
 RTBSE|            1497     0.42798966E-007     0.10000000E+002                6
 RTBSE| Simulation step         Convergence     Electron number  ETRS Iterations
 RTBSE|            1498     0.32234108E-007     0.10000000E+002                6
 RTBSE| Simulation step         Convergence     Electron number  ETRS Iterations
 RTBSE|            1499     0.36171059E-007     0.10000000E+002                6
 RTBSE| Simulation step         Convergence     Electron number  ETRS Iterations
 RTBSE|            1500     0.41264917E-007     0.10000000E+002                6
 RTBSE| Simulation step         Convergence     Electron number  ETRS Iterations
 RTBSE|            1501     0.47829354E-007     0.10000000E+002                6
 RTBSE| Simulation step         Convergence     Electron number  ETRS Iterations
 RTBSE|            1502     0.57940482E-007     0.10000000E+002                6
 RTBSE| Simulation step         Convergence     Electron number  ETRS Iterations
 RTBSE|            1503     0.73655586E-007     0.10000000E+002                6
 RTBSE| Simulation step         Convergence     Electron number  ETRS Iterations
 RTBSE|            1504     0.96451864E-007     0.10000000E+002                6
 RTBSE| Simulation step         Convergence     Electron number  ETRS Iterations
 RTBSE|            1505     0.19554615E-007     0.10000000E+002                7
 RTBSE| Simulation step         Convergence     Electron number  ETRS Iterations
 RTBSE|            1506     0.26249898E-007     0.10000000E+002                7
 RTBSE| Simulation step         Convergence     Electron number  ETRS Iterations
 RTBSE|            1507     0.33927257E-007     0.10000000E+002                7
 RTBSE| Simulation step         Convergence     Electron number  ETRS Iterations
 RTBSE|            1508     0.41975802E-007     0.10000000E+002                7
 RTBSE| Simulation step         Convergence     Electron number  ETRS Iterations
 RTBSE|            1509     0.49461285E-007     0.10000000E+002                7
 RTBSE| Simulation step         Convergence     Electron number  ETRS Iterations
 RTBSE|            1510     0.55510517E-007     0.10000000E+002                7
 RTBSE| Simulation step         Convergence     Electron number  ETRS Iterations
 RTBSE|            1511     0.59283058E-007     0.10000000E+002                7
 RTBSE| Simulation step         Convergence     Electron number  ETRS Iterations
 RTBSE|            1512     0.60324870E-007     0.10000000E+002                7
 RTBSE| Simulation step         Convergence     Electron number  ETRS Iterations
 RTBSE|            1513     0.58545176E-007     0.10000000E+002                7
 RTBSE| Simulation step         Convergence     Electron number  ETRS Iterations
 RTBSE|            1514     0.54231925E-007     0.10000000E+002                7
 RTBSE| Simulation step         Convergence     Electron number  ETRS Iterations
 RTBSE|            1515     0.47981061E-007     0.10000000E+002                7
 RTBSE| Simulation step         Convergence     Electron number  ETRS Iterations
 RTBSE|            1516     0.40519233E-007     0.10000000E+002                7
 RTBSE| Simulation step         Convergence     Electron number  ETRS Iterations
 RTBSE|            1517     0.32561820E-007     0.10000000E+002                7
 RTBSE| Simulation step         Convergence     Electron number  ETRS Iterations
 RTBSE|            1518     0.24778547E-007     0.10000000E+002                7
 RTBSE| Simulation step         Convergence     Electron number  ETRS Iterations
 RTBSE|            1519     0.18565383E-007     0.10000000E+002                7
 RTBSE| Simulation step         Convergence     Electron number  ETRS Iterations
 RTBSE|            1520     0.14476251E-007     0.10000000E+002                7
 RTBSE| Simulation step         Convergence     Electron number  ETRS Iterations
 RTBSE|            1521     0.82239604E-007     0.10000000E+002                6
 RTBSE| Simulation step         Convergence     Electron number  ETRS Iterations
 RTBSE|            1522     0.58636569E-007     0.10000000E+002                6
 RTBSE| Simulation step         Convergence     Electron number  ETRS Iterations
 RTBSE|            1523     0.40981532E-007     0.10000000E+002                6
 RTBSE| Simulation step         Convergence     Electron number  ETRS Iterations
 RTBSE|            1524     0.28596999E-007     0.10000000E+002                6
 RTBSE| Simulation step         Convergence     Electron number  ETRS Iterations
 RTBSE|            1525     0.21533456E-007     0.10000000E+002                6
 RTBSE| Simulation step         Convergence     Electron number  ETRS Iterations
 RTBSE|            1526     0.23594149E-007     0.10000000E+002                6
 RTBSE| Simulation step         Convergence     Electron number  ETRS Iterations
 RTBSE|            1527     0.26278221E-007     0.10000000E+002                6
 RTBSE| Simulation step         Convergence     Electron number  ETRS Iterations
 RTBSE|            1528     0.30473604E-007     0.10000000E+002                6
 RTBSE| Simulation step         Convergence     Electron number  ETRS Iterations
 RTBSE|            1529     0.36872015E-007     0.10000000E+002                6
 RTBSE| Simulation step         Convergence     Electron number  ETRS Iterations
 RTBSE|            1530     0.45989467E-007     0.10000000E+002                6
 RTBSE| Simulation step         Convergence     Electron number  ETRS Iterations
 RTBSE|            1531     0.57791422E-007     0.10000000E+002                6
 RTBSE| Simulation step         Convergence     Electron number  ETRS Iterations
 RTBSE|            1532     0.71897359E-007     0.10000000E+002                6
 RTBSE| Simulation step         Convergence     Electron number  ETRS Iterations
 RTBSE|            1533     0.87643033E-007     0.10000000E+002                6
 RTBSE| Simulation step         Convergence     Electron number  ETRS Iterations
 RTBSE|            1534     0.16542610E-007     0.10000000E+002                7
 RTBSE| Simulation step         Convergence     Electron number  ETRS Iterations
 RTBSE|            1535     0.19316914E-007     0.10000000E+002                7
 RTBSE| Simulation step         Convergence     Electron number  ETRS Iterations
 RTBSE|            1536     0.21878976E-007     0.10000000E+002                7
 RTBSE| Simulation step         Convergence     Electron number  ETRS Iterations
 RTBSE|            1537     0.23986800E-007     0.10000000E+002                7
 RTBSE| Simulation step         Convergence     Electron number  ETRS Iterations
 RTBSE|            1538     0.25454442E-007     0.10000000E+002                7
 RTBSE| Simulation step         Convergence     Electron number  ETRS Iterations
 RTBSE|            1539     0.26153796E-007     0.10000000E+002                7
 RTBSE| Simulation step         Convergence     Electron number  ETRS Iterations
 RTBSE|            1540     0.25985109E-007     0.10000000E+002                7
 RTBSE| Simulation step         Convergence     Electron number  ETRS Iterations
 RTBSE|            1541     0.24859828E-007     0.10000000E+002                7
 RTBSE| Simulation step         Convergence     Electron number  ETRS Iterations
 RTBSE|            1542     0.22858927E-007     0.10000000E+002                7
 RTBSE| Simulation step         Convergence     Electron number  ETRS Iterations
 RTBSE|            1543     0.20109089E-007     0.10000000E+002                7
 RTBSE| Simulation step         Convergence     Electron number  ETRS Iterations
 RTBSE|            1544     0.16865688E-007     0.10000000E+002                7
 RTBSE| Simulation step         Convergence     Electron number  ETRS Iterations
 RTBSE|            1545     0.14609738E-007     0.10000000E+002                7
 RTBSE| Simulation step         Convergence     Electron number  ETRS Iterations
 RTBSE|            1546     0.91540588E-007     0.10000000E+002                6
 RTBSE| Simulation step         Convergence     Electron number  ETRS Iterations
 RTBSE|            1547     0.77908971E-007     0.10000000E+002                6
 RTBSE| Simulation step         Convergence     Electron number  ETRS Iterations
 RTBSE|            1548     0.65526961E-007     0.10000000E+002                6
 RTBSE| Simulation step         Convergence     Electron number  ETRS Iterations
 RTBSE|            1549     0.55042430E-007     0.10000000E+002                6
 RTBSE| Simulation step         Convergence     Electron number  ETRS Iterations
 RTBSE|            1550     0.46464016E-007     0.10000000E+002                6
 RTBSE| Simulation step         Convergence     Electron number  ETRS Iterations
 RTBSE|            1551     0.39117189E-007     0.10000000E+002                6
 RTBSE| Simulation step         Convergence     Electron number  ETRS Iterations
 RTBSE|            1552     0.40582160E-007     0.10000000E+002                6
 RTBSE| Simulation step         Convergence     Electron number  ETRS Iterations
 RTBSE|            1553     0.52728785E-007     0.10000000E+002                6
 RTBSE| Simulation step         Convergence     Electron number  ETRS Iterations
 RTBSE|            1554     0.70427498E-007     0.10000000E+002                6
 RTBSE| Simulation step         Convergence     Electron number  ETRS Iterations
 RTBSE|            1555     0.94803877E-007     0.10000000E+002                6
 RTBSE| Simulation step         Convergence     Electron number  ETRS Iterations
 RTBSE|            1556     0.19369834E-007     0.10000000E+002                7
 RTBSE| Simulation step         Convergence     Electron number  ETRS Iterations
 RTBSE|            1557     0.26154138E-007     0.10000000E+002                7
 RTBSE| Simulation step         Convergence     Electron number  ETRS Iterations
 RTBSE|            1558     0.33738015E-007     0.10000000E+002                7
 RTBSE| Simulation step         Convergence     Electron number  ETRS Iterations
 RTBSE|            1559     0.41540223E-007     0.10000000E+002                7
 RTBSE| Simulation step         Convergence     Electron number  ETRS Iterations
 RTBSE|            1560     0.48787050E-007     0.10000000E+002                7
 RTBSE| Simulation step         Convergence     Electron number  ETRS Iterations
 RTBSE|            1561     0.54634033E-007     0.10000000E+002                7
 RTBSE| Simulation step         Convergence     Electron number  ETRS Iterations
 RTBSE|            1562     0.58393377E-007     0.10000000E+002                7
 RTBSE| Simulation step         Convergence     Electron number  ETRS Iterations
 RTBSE|            1563     0.59664243E-007     0.10000000E+002                7
 RTBSE| Simulation step         Convergence     Electron number  ETRS Iterations
 RTBSE|            1564     0.58368223E-007     0.10000000E+002                7
 RTBSE| Simulation step         Convergence     Electron number  ETRS Iterations
 RTBSE|            1565     0.54778893E-007     0.10000000E+002                7
 RTBSE| Simulation step         Convergence     Electron number  ETRS Iterations
 RTBSE|            1566     0.49430194E-007     0.10000000E+002                7
 RTBSE| Simulation step         Convergence     Electron number  ETRS Iterations
 RTBSE|            1567     0.42961514E-007     0.10000000E+002                7
 RTBSE| Simulation step         Convergence     Electron number  ETRS Iterations
 RTBSE|            1568     0.36028355E-007     0.10000000E+002                7
 RTBSE| Simulation step         Convergence     Electron number  ETRS Iterations
 RTBSE|            1569     0.29187423E-007     0.10000000E+002                7
 RTBSE| Simulation step         Convergence     Electron number  ETRS Iterations
 RTBSE|            1570     0.22849674E-007     0.10000000E+002                7
 RTBSE| Simulation step         Convergence     Electron number  ETRS Iterations
 RTBSE|            1571     0.17469326E-007     0.10000000E+002                7
 RTBSE| Simulation step         Convergence     Electron number  ETRS Iterations
 RTBSE|            1572     0.14432581E-007     0.10000000E+002                7
 RTBSE| Simulation step         Convergence     Electron number  ETRS Iterations
 RTBSE|            1573     0.90113377E-007     0.10000000E+002                6
 RTBSE| Simulation step         Convergence     Electron number  ETRS Iterations
 RTBSE|            1574     0.72064618E-007     0.10000000E+002                6
 RTBSE| Simulation step         Convergence     Electron number  ETRS Iterations
 RTBSE|            1575     0.57416498E-007     0.10000000E+002                6
 RTBSE| Simulation step         Convergence     Electron number  ETRS Iterations
 RTBSE|            1576     0.45303285E-007     0.10000000E+002                6
 RTBSE| Simulation step         Convergence     Electron number  ETRS Iterations
 RTBSE|            1577     0.34737251E-007     0.10000000E+002                6
 RTBSE| Simulation step         Convergence     Electron number  ETRS Iterations
 RTBSE|            1578     0.24789055E-007     0.10000000E+002                6
 RTBSE| Simulation step         Convergence     Electron number  ETRS Iterations
 RTBSE|            1579     0.30381871E-007     0.10000000E+002                6
 RTBSE| Simulation step         Convergence     Electron number  ETRS Iterations
 RTBSE|            1580     0.40088728E-007     0.10000000E+002                6
 RTBSE| Simulation step         Convergence     Electron number  ETRS Iterations
 RTBSE|            1581     0.51766375E-007     0.10000000E+002                6
 RTBSE| Simulation step         Convergence     Electron number  ETRS Iterations
 RTBSE|            1582     0.64901593E-007     0.10000000E+002                6
 RTBSE| Simulation step         Convergence     Electron number  ETRS Iterations
 RTBSE|            1583     0.79103463E-007     0.10000000E+002                6
 RTBSE| Simulation step         Convergence     Electron number  ETRS Iterations
 RTBSE|            1584     0.93753745E-007     0.10000000E+002                6
 RTBSE| Simulation step         Convergence     Electron number  ETRS Iterations
 RTBSE|            1585     0.17150816E-007     0.10000000E+002                7
 RTBSE| Simulation step         Convergence     Electron number  ETRS Iterations
 RTBSE|            1586     0.19517604E-007     0.10000000E+002                7
 RTBSE| Simulation step         Convergence     Electron number  ETRS Iterations
 RTBSE|            1587     0.21634512E-007     0.10000000E+002                7
 RTBSE| Simulation step         Convergence     Electron number  ETRS Iterations
 RTBSE|            1588     0.23360576E-007     0.10000000E+002                7
 RTBSE| Simulation step         Convergence     Electron number  ETRS Iterations
 RTBSE|            1589     0.24600617E-007     0.10000000E+002                7
 RTBSE| Simulation step         Convergence     Electron number  ETRS Iterations
 RTBSE|            1590     0.25242120E-007     0.10000000E+002                7
 RTBSE| Simulation step         Convergence     Electron number  ETRS Iterations
 RTBSE|            1591     0.25220909E-007     0.10000000E+002                7
 RTBSE| Simulation step         Convergence     Electron number  ETRS Iterations
 RTBSE|            1592     0.24470837E-007     0.10000000E+002                7
 RTBSE| Simulation step         Convergence     Electron number  ETRS Iterations
 RTBSE|            1593     0.23044568E-007     0.10000000E+002                7
 RTBSE| Simulation step         Convergence     Electron number  ETRS Iterations
 RTBSE|            1594     0.20984943E-007     0.10000000E+002                7
 RTBSE| Simulation step         Convergence     Electron number  ETRS Iterations
 RTBSE|            1595     0.18461907E-007     0.10000000E+002                7
 RTBSE| Simulation step         Convergence     Electron number  ETRS Iterations
 RTBSE|            1596     0.15754583E-007     0.10000000E+002                7
 RTBSE| Simulation step         Convergence     Electron number  ETRS Iterations
 RTBSE|            1597     0.13890162E-007     0.10000000E+002                7
 RTBSE| Simulation step         Convergence     Electron number  ETRS Iterations
 RTBSE|            1598     0.92570293E-007     0.10000000E+002                6
 RTBSE| Simulation step         Convergence     Electron number  ETRS Iterations
 RTBSE|            1599     0.82799104E-007     0.10000000E+002                6
 RTBSE| Simulation step         Convergence     Electron number  ETRS Iterations
 RTBSE|            1600     0.73806721E-007     0.10000000E+002                6
 RTBSE| Simulation step         Convergence     Electron number  ETRS Iterations
 RTBSE|            1601     0.65537821E-007     0.10000000E+002                6
 RTBSE| Simulation step         Convergence     Electron number  ETRS Iterations
 RTBSE|            1602     0.57423825E-007     0.10000000E+002                6
 RTBSE| Simulation step         Convergence     Electron number  ETRS Iterations
 RTBSE|            1603     0.48262426E-007     0.10000000E+002                6
 RTBSE| Simulation step         Convergence     Electron number  ETRS Iterations
 RTBSE|            1604     0.44483628E-007     0.10000000E+002                6
 RTBSE| Simulation step         Convergence     Electron number  ETRS Iterations
 RTBSE|            1605     0.62512557E-007     0.10000000E+002                6
 RTBSE| Simulation step         Convergence     Electron number  ETRS Iterations
 RTBSE|            1606     0.87428901E-007     0.10000000E+002                6
 RTBSE| Simulation step         Convergence     Electron number  ETRS Iterations
 RTBSE|            1607     0.18006389E-007     0.10000000E+002                7
 RTBSE| Simulation step         Convergence     Electron number  ETRS Iterations
 RTBSE|            1608     0.24694126E-007     0.10000000E+002                7
 RTBSE| Simulation step         Convergence     Electron number  ETRS Iterations
 RTBSE|            1609     0.32016812E-007     0.10000000E+002                7
 RTBSE| Simulation step         Convergence     Electron number  ETRS Iterations
 RTBSE|            1610     0.39461690E-007     0.10000000E+002                7
 RTBSE| Simulation step         Convergence     Electron number  ETRS Iterations
 RTBSE|            1611     0.46403478E-007     0.10000000E+002                7
 RTBSE| Simulation step         Convergence     Electron number  ETRS Iterations
 RTBSE|            1612     0.52177332E-007     0.10000000E+002                7
 RTBSE| Simulation step         Convergence     Electron number  ETRS Iterations
 RTBSE|            1613     0.56195232E-007     0.10000000E+002                7
 RTBSE| Simulation step         Convergence     Electron number  ETRS Iterations
 RTBSE|            1614     0.58110344E-007     0.10000000E+002                7
 RTBSE| Simulation step         Convergence     Electron number  ETRS Iterations
 RTBSE|            1615     0.57847820E-007     0.10000000E+002                7
 RTBSE| Simulation step         Convergence     Electron number  ETRS Iterations
 RTBSE|            1616     0.55596950E-007     0.10000000E+002                7
 RTBSE| Simulation step         Convergence     Electron number  ETRS Iterations
 RTBSE|            1617     0.51735493E-007     0.10000000E+002                7
 RTBSE| Simulation step         Convergence     Electron number  ETRS Iterations
 RTBSE|            1618     0.46720967E-007     0.10000000E+002                7
 RTBSE| Simulation step         Convergence     Electron number  ETRS Iterations
 RTBSE|            1619     0.41045928E-007     0.10000000E+002                7
 RTBSE| Simulation step         Convergence     Electron number  ETRS Iterations
 RTBSE|            1620     0.35138037E-007     0.10000000E+002                7
 RTBSE| Simulation step         Convergence     Electron number  ETRS Iterations
 RTBSE|            1621     0.29351246E-007     0.10000000E+002                7
 RTBSE| Simulation step         Convergence     Electron number  ETRS Iterations
 RTBSE|            1622     0.23905288E-007     0.10000000E+002                7
 RTBSE| Simulation step         Convergence     Electron number  ETRS Iterations
 RTBSE|            1623     0.18954564E-007     0.10000000E+002                7
 RTBSE| Simulation step         Convergence     Electron number  ETRS Iterations
 RTBSE|            1624     0.15986508E-007     0.10000000E+002                7
 RTBSE| Simulation step         Convergence     Electron number  ETRS Iterations
 RTBSE|            1625     0.13499200E-007     0.10000000E+002                7
 RTBSE| Simulation step         Convergence     Electron number  ETRS Iterations
 RTBSE|            1626     0.83343424E-007     0.10000000E+002                6
 RTBSE| Simulation step         Convergence     Electron number  ETRS Iterations
 RTBSE|            1627     0.65889487E-007     0.10000000E+002                6
 RTBSE| Simulation step         Convergence     Electron number  ETRS Iterations
 RTBSE|            1628     0.49709821E-007     0.10000000E+002                6
 RTBSE| Simulation step         Convergence     Electron number  ETRS Iterations
 RTBSE|            1629     0.34391352E-007     0.10000000E+002                6
 RTBSE| Simulation step         Convergence     Electron number  ETRS Iterations
 RTBSE|            1630     0.32712157E-007     0.10000000E+002                6
 RTBSE| Simulation step         Convergence     Electron number  ETRS Iterations
 RTBSE|            1631     0.44686333E-007     0.10000000E+002                6
 RTBSE| Simulation step         Convergence     Electron number  ETRS Iterations
 RTBSE|            1632     0.57961975E-007     0.10000000E+002                6
 RTBSE| Simulation step         Convergence     Electron number  ETRS Iterations
 RTBSE|            1633     0.71672317E-007     0.10000000E+002                6
 RTBSE| Simulation step         Convergence     Electron number  ETRS Iterations
 RTBSE|            1634     0.85282425E-007     0.10000000E+002                6
 RTBSE| Simulation step         Convergence     Electron number  ETRS Iterations
 RTBSE|            1635     0.98408066E-007     0.10000000E+002                6
 RTBSE| Simulation step         Convergence     Electron number  ETRS Iterations
 RTBSE|            1636     0.17490264E-007     0.10000000E+002                7
 RTBSE| Simulation step         Convergence     Electron number  ETRS Iterations
 RTBSE|            1637     0.19437867E-007     0.10000000E+002                7
 RTBSE| Simulation step         Convergence     Electron number  ETRS Iterations
 RTBSE|            1638     0.21119968E-007     0.10000000E+002                7
 RTBSE| Simulation step         Convergence     Electron number  ETRS Iterations
 RTBSE|            1639     0.22461549E-007     0.10000000E+002                7
 RTBSE| Simulation step         Convergence     Electron number  ETRS Iterations
 RTBSE|            1640     0.23411409E-007     0.10000000E+002                7
 RTBSE| Simulation step         Convergence     Electron number  ETRS Iterations
 RTBSE|            1641     0.23898701E-007     0.10000000E+002                7
 RTBSE| Simulation step         Convergence     Electron number  ETRS Iterations
 RTBSE|            1642     0.23906703E-007     0.10000000E+002                7
 RTBSE| Simulation step         Convergence     Electron number  ETRS Iterations
 RTBSE|            1643     0.23395925E-007     0.10000000E+002                7
 RTBSE| Simulation step         Convergence     Electron number  ETRS Iterations
 RTBSE|            1644     0.22434215E-007     0.10000000E+002                7
 RTBSE| Simulation step         Convergence     Electron number  ETRS Iterations
 RTBSE|            1645     0.21038700E-007     0.10000000E+002                7
 RTBSE| Simulation step         Convergence     Electron number  ETRS Iterations
 RTBSE|            1646     0.19304361E-007     0.10000000E+002                7
 RTBSE| Simulation step         Convergence     Electron number  ETRS Iterations
 RTBSE|            1647     0.17364085E-007     0.10000000E+002                7
 RTBSE| Simulation step         Convergence     Electron number  ETRS Iterations
 RTBSE|            1648     0.15310513E-007     0.10000000E+002                7
 RTBSE| Simulation step         Convergence     Electron number  ETRS Iterations
 RTBSE|            1649     0.13762747E-007     0.10000000E+002                7
 RTBSE| Simulation step         Convergence     Electron number  ETRS Iterations
 RTBSE|            1650     0.98844916E-007     0.10000000E+002                6
 RTBSE| Simulation step         Convergence     Electron number  ETRS Iterations
 RTBSE|            1651     0.92770446E-007     0.10000000E+002                6
 RTBSE| Simulation step         Convergence     Electron number  ETRS Iterations
 RTBSE|            1652     0.86154442E-007     0.10000000E+002                6
 RTBSE| Simulation step         Convergence     Electron number  ETRS Iterations
 RTBSE|            1653     0.78395375E-007     0.10000000E+002                6
 RTBSE| Simulation step         Convergence     Electron number  ETRS Iterations
 RTBSE|            1654     0.68532586E-007     0.10000000E+002                6
 RTBSE| Simulation step         Convergence     Electron number  ETRS Iterations
 RTBSE|            1655     0.55447472E-007     0.10000000E+002                6
 RTBSE| Simulation step         Convergence     Electron number  ETRS Iterations
 RTBSE|            1656     0.51302368E-007     0.10000000E+002                6
 RTBSE| Simulation step         Convergence     Electron number  ETRS Iterations
 RTBSE|            1657     0.75369640E-007     0.10000000E+002                6
 RTBSE| Simulation step         Convergence     Electron number  ETRS Iterations
 RTBSE|            1658     0.15581877E-007     0.10000000E+002                7
 RTBSE| Simulation step         Convergence     Electron number  ETRS Iterations
 RTBSE|            1659     0.22302183E-007     0.10000000E+002                7
 RTBSE| Simulation step         Convergence     Electron number  ETRS Iterations
 RTBSE|            1660     0.29617006E-007     0.10000000E+002                7
 RTBSE| Simulation step         Convergence     Electron number  ETRS Iterations
 RTBSE|            1661     0.37100481E-007     0.10000000E+002                7
 RTBSE| Simulation step         Convergence     Electron number  ETRS Iterations
 RTBSE|            1662     0.44234087E-007     0.10000000E+002                7
 RTBSE| Simulation step         Convergence     Electron number  ETRS Iterations
 RTBSE|            1663     0.50421416E-007     0.10000000E+002                7
 RTBSE| Simulation step         Convergence     Electron number  ETRS Iterations
 RTBSE|            1664     0.55156527E-007     0.10000000E+002                7
 RTBSE| Simulation step         Convergence     Electron number  ETRS Iterations
 RTBSE|            1665     0.58087315E-007     0.10000000E+002                7
 RTBSE| Simulation step         Convergence     Electron number  ETRS Iterations
 RTBSE|            1666     0.58977403E-007     0.10000000E+002                7
 RTBSE| Simulation step         Convergence     Electron number  ETRS Iterations
 RTBSE|            1667     0.57911406E-007     0.10000000E+002                7
 RTBSE| Simulation step         Convergence     Electron number  ETRS Iterations
 RTBSE|            1668     0.55120255E-007     0.10000000E+002                7
 RTBSE| Simulation step         Convergence     Electron number  ETRS Iterations
 RTBSE|            1669     0.50963216E-007     0.10000000E+002                7
 RTBSE| Simulation step         Convergence     Electron number  ETRS Iterations
 RTBSE|            1670     0.45882851E-007     0.10000000E+002                7
 RTBSE| Simulation step         Convergence     Electron number  ETRS Iterations
 RTBSE|            1671     0.40283943E-007     0.10000000E+002                7
 RTBSE| Simulation step         Convergence     Electron number  ETRS Iterations
 RTBSE|            1672     0.34540311E-007     0.10000000E+002                7
 RTBSE| Simulation step         Convergence     Electron number  ETRS Iterations
 RTBSE|            1673     0.28906883E-007     0.10000000E+002                7
 RTBSE| Simulation step         Convergence     Electron number  ETRS Iterations
 RTBSE|            1674     0.23593424E-007     0.10000000E+002                7
 RTBSE| Simulation step         Convergence     Electron number  ETRS Iterations
 RTBSE|            1675     0.18764595E-007     0.10000000E+002                7
 RTBSE| Simulation step         Convergence     Electron number  ETRS Iterations
 RTBSE|            1676     0.16151272E-007     0.10000000E+002                7
 RTBSE| Simulation step         Convergence     Electron number  ETRS Iterations
 RTBSE|            1677     0.13572121E-007     0.10000000E+002                7
 RTBSE| Simulation step         Convergence     Electron number  ETRS Iterations
 RTBSE|            1678     0.81578126E-007     0.10000000E+002                6
 RTBSE| Simulation step         Convergence     Electron number  ETRS Iterations
 RTBSE|            1679     0.62072684E-007     0.10000000E+002                6
 RTBSE| Simulation step         Convergence     Electron number  ETRS Iterations
 RTBSE|            1680     0.43425744E-007     0.10000000E+002                6
 RTBSE| Simulation step         Convergence     Electron number  ETRS Iterations
 RTBSE|            1681     0.32703817E-007     0.10000000E+002                6
 RTBSE| Simulation step         Convergence     Electron number  ETRS Iterations
 RTBSE|            1682     0.46134478E-007     0.10000000E+002                6
 RTBSE| Simulation step         Convergence     Electron number  ETRS Iterations
 RTBSE|            1683     0.60913059E-007     0.10000000E+002                6
 RTBSE| Simulation step         Convergence     Electron number  ETRS Iterations
 RTBSE|            1684     0.75508342E-007     0.10000000E+002                6
 RTBSE| Simulation step         Convergence     Electron number  ETRS Iterations
 RTBSE|            1685     0.89160919E-007     0.10000000E+002                6
 RTBSE| Simulation step         Convergence     Electron number  ETRS Iterations
 RTBSE|            1686     0.15791502E-007     0.10000000E+002                7
 RTBSE| Simulation step         Convergence     Electron number  ETRS Iterations
 RTBSE|            1687     0.17691516E-007     0.10000000E+002                7
 RTBSE| Simulation step         Convergence     Electron number  ETRS Iterations
 RTBSE|            1688     0.19265192E-007     0.10000000E+002                7
 RTBSE| Simulation step         Convergence     Electron number  ETRS Iterations
 RTBSE|            1689     0.20493546E-007     0.10000000E+002                7
 RTBSE| Simulation step         Convergence     Electron number  ETRS Iterations
 RTBSE|            1690     0.21385479E-007     0.10000000E+002                7
 RTBSE| Simulation step         Convergence     Electron number  ETRS Iterations
 RTBSE|            1691     0.21924770E-007     0.10000000E+002                7
 RTBSE| Simulation step         Convergence     Electron number  ETRS Iterations
 RTBSE|            1692     0.22140116E-007     0.10000000E+002                7
 RTBSE| Simulation step         Convergence     Electron number  ETRS Iterations
 RTBSE|            1693     0.22027556E-007     0.10000000E+002                7
 RTBSE| Simulation step         Convergence     Electron number  ETRS Iterations
 RTBSE|            1694     0.21677604E-007     0.10000000E+002                7
 RTBSE| Simulation step         Convergence     Electron number  ETRS Iterations
 RTBSE|            1695     0.21085139E-007     0.10000000E+002                7
 RTBSE| Simulation step         Convergence     Electron number  ETRS Iterations
 RTBSE|            1696     0.20331269E-007     0.10000000E+002                7
 RTBSE| Simulation step         Convergence     Electron number  ETRS Iterations
 RTBSE|            1697     0.19419696E-007     0.10000000E+002                7
 RTBSE| Simulation step         Convergence     Electron number  ETRS Iterations
 RTBSE|            1698     0.18418733E-007     0.10000000E+002                7
 RTBSE| Simulation step         Convergence     Electron number  ETRS Iterations
 RTBSE|            1699     0.17311612E-007     0.10000000E+002                7
 RTBSE| Simulation step         Convergence     Electron number  ETRS Iterations
 RTBSE|            1700     0.16087808E-007     0.10000000E+002                7
 RTBSE| Simulation step         Convergence     Electron number  ETRS Iterations
 RTBSE|            1701     0.14739528E-007     0.10000000E+002                7
 RTBSE| Simulation step         Convergence     Electron number  ETRS Iterations
 RTBSE|            1702     0.13655120E-007     0.10000000E+002                7
 RTBSE| Simulation step         Convergence     Electron number  ETRS Iterations
 RTBSE|            1703     0.12736589E-007     0.10000000E+002                7
 RTBSE| Simulation step         Convergence     Electron number  ETRS Iterations
 RTBSE|            1704     0.12139780E-007     0.10000000E+002                7
 RTBSE| Simulation step         Convergence     Electron number  ETRS Iterations
 RTBSE|            1705     0.92284733E-007     0.10000000E+002                6
 RTBSE| Simulation step         Convergence     Electron number  ETRS Iterations
 RTBSE|            1706     0.79472951E-007     0.10000000E+002                6
 RTBSE| Simulation step         Convergence     Electron number  ETRS Iterations
 RTBSE|            1707     0.61626696E-007     0.10000000E+002                6
 RTBSE| Simulation step         Convergence     Electron number  ETRS Iterations
 RTBSE|            1708     0.60558588E-007     0.10000000E+002                6
 RTBSE| Simulation step         Convergence     Electron number  ETRS Iterations
 RTBSE|            1709     0.91102490E-007     0.10000000E+002                6
 RTBSE| Simulation step         Convergence     Electron number  ETRS Iterations
 RTBSE|            1710     0.19546906E-007     0.10000000E+002                7
 RTBSE| Simulation step         Convergence     Electron number  ETRS Iterations
 RTBSE|            1711     0.27368792E-007     0.10000000E+002                7
 RTBSE| Simulation step         Convergence     Electron number  ETRS Iterations
 RTBSE|            1712     0.35427994E-007     0.10000000E+002                7
 RTBSE| Simulation step         Convergence     Electron number  ETRS Iterations
 RTBSE|            1713     0.43196995E-007     0.10000000E+002                7
 RTBSE| Simulation step         Convergence     Electron number  ETRS Iterations
 RTBSE|            1714     0.50067880E-007     0.10000000E+002                7
 RTBSE| Simulation step         Convergence     Electron number  ETRS Iterations
 RTBSE|            1715     0.55472805E-007     0.10000000E+002                7
 RTBSE| Simulation step         Convergence     Electron number  ETRS Iterations
 RTBSE|            1716     0.59010732E-007     0.10000000E+002                7
 RTBSE| Simulation step         Convergence     Electron number  ETRS Iterations
 RTBSE|            1717     0.60422860E-007     0.10000000E+002                7
 RTBSE| Simulation step         Convergence     Electron number  ETRS Iterations
 RTBSE|            1718     0.59745838E-007     0.10000000E+002                7
 RTBSE| Simulation step         Convergence     Electron number  ETRS Iterations
 RTBSE|            1719     0.57230960E-007     0.10000000E+002                7
 RTBSE| Simulation step         Convergence     Electron number  ETRS Iterations
 RTBSE|            1720     0.53281897E-007     0.10000000E+002                7
 RTBSE| Simulation step         Convergence     Electron number  ETRS Iterations
 RTBSE|            1721     0.48340354E-007     0.10000000E+002                7
 RTBSE| Simulation step         Convergence     Electron number  ETRS Iterations
 RTBSE|            1722     0.42865237E-007     0.10000000E+002                7
 RTBSE| Simulation step         Convergence     Electron number  ETRS Iterations
 RTBSE|            1723     0.37249965E-007     0.10000000E+002                7
 RTBSE| Simulation step         Convergence     Electron number  ETRS Iterations
 RTBSE|            1724     0.31780162E-007     0.10000000E+002                7
 RTBSE| Simulation step         Convergence     Electron number  ETRS Iterations
 RTBSE|            1725     0.26610106E-007     0.10000000E+002                7
 RTBSE| Simulation step         Convergence     Electron number  ETRS Iterations
 RTBSE|            1726     0.21806511E-007     0.10000000E+002                7
 RTBSE| Simulation step         Convergence     Electron number  ETRS Iterations
 RTBSE|            1727     0.17888444E-007     0.10000000E+002                7
 RTBSE| Simulation step         Convergence     Electron number  ETRS Iterations
 RTBSE|            1728     0.15497169E-007     0.10000000E+002                7
 RTBSE| Simulation step         Convergence     Electron number  ETRS Iterations
 RTBSE|            1729     0.97111707E-007     0.10000000E+002                6
 RTBSE| Simulation step         Convergence     Electron number  ETRS Iterations
 RTBSE|            1730     0.76530986E-007     0.10000000E+002                6
 RTBSE| Simulation step         Convergence     Electron number  ETRS Iterations
 RTBSE|            1731     0.56251288E-007     0.10000000E+002                6
 RTBSE| Simulation step         Convergence     Electron number  ETRS Iterations
 RTBSE|            1732     0.36235312E-007     0.10000000E+002                6
 RTBSE| Simulation step         Convergence     Electron number  ETRS Iterations
 RTBSE|            1733     0.41482413E-007     0.10000000E+002                6
 RTBSE| Simulation step         Convergence     Electron number  ETRS Iterations
 RTBSE|            1734     0.57571306E-007     0.10000000E+002                6
 RTBSE| Simulation step         Convergence     Electron number  ETRS Iterations
 RTBSE|            1735     0.73512871E-007     0.10000000E+002                6
 RTBSE| Simulation step         Convergence     Electron number  ETRS Iterations
 RTBSE|            1736     0.88025841E-007     0.10000000E+002                6
 RTBSE| Simulation step         Convergence     Electron number  ETRS Iterations
 RTBSE|            1737     0.15535238E-007     0.10000000E+002                7
 RTBSE| Simulation step         Convergence     Electron number  ETRS Iterations
 RTBSE|            1738     0.17348894E-007     0.10000000E+002                7
 RTBSE| Simulation step         Convergence     Electron number  ETRS Iterations
 RTBSE|            1739     0.18720911E-007     0.10000000E+002                7
 RTBSE| Simulation step         Convergence     Electron number  ETRS Iterations
 RTBSE|            1740     0.19672727E-007     0.10000000E+002                7
 RTBSE| Simulation step         Convergence     Electron number  ETRS Iterations
 RTBSE|            1741     0.20244477E-007     0.10000000E+002                7
 RTBSE| Simulation step         Convergence     Electron number  ETRS Iterations
 RTBSE|            1742     0.20475745E-007     0.10000000E+002                7
 RTBSE| Simulation step         Convergence     Electron number  ETRS Iterations
 RTBSE|            1743     0.20445912E-007     0.10000000E+002                7
 RTBSE| Simulation step         Convergence     Electron number  ETRS Iterations
 RTBSE|            1744     0.20251521E-007     0.10000000E+002                7
 RTBSE| Simulation step         Convergence     Electron number  ETRS Iterations
 RTBSE|            1745     0.19981833E-007     0.10000000E+002                7
 RTBSE| Simulation step         Convergence     Electron number  ETRS Iterations
 RTBSE|            1746     0.19700009E-007     0.10000000E+002                7
 RTBSE| Simulation step         Convergence     Electron number  ETRS Iterations
 RTBSE|            1747     0.19446437E-007     0.10000000E+002                7
 RTBSE| Simulation step         Convergence     Electron number  ETRS Iterations
 RTBSE|            1748     0.19225395E-007     0.10000000E+002                7
 RTBSE| Simulation step         Convergence     Electron number  ETRS Iterations
 RTBSE|            1749     0.19026102E-007     0.10000000E+002                7
 RTBSE| Simulation step         Convergence     Electron number  ETRS Iterations
 RTBSE|            1750     0.18806858E-007     0.10000000E+002                7
 RTBSE| Simulation step         Convergence     Electron number  ETRS Iterations
 RTBSE|            1751     0.18503275E-007     0.10000000E+002                7
 RTBSE| Simulation step         Convergence     Electron number  ETRS Iterations
 RTBSE|            1752     0.18007290E-007     0.10000000E+002                7
 RTBSE| Simulation step         Convergence     Electron number  ETRS Iterations
 RTBSE|            1753     0.17210398E-007     0.10000000E+002                7
 RTBSE| Simulation step         Convergence     Electron number  ETRS Iterations
 RTBSE|            1754     0.15976321E-007     0.10000000E+002                7
 RTBSE| Simulation step         Convergence     Electron number  ETRS Iterations
 RTBSE|            1755     0.14968506E-007     0.10000000E+002                7
 RTBSE| Simulation step         Convergence     Electron number  ETRS Iterations
 RTBSE|            1756     0.14638679E-007     0.10000000E+002                7
 RTBSE| Simulation step         Convergence     Electron number  ETRS Iterations
 RTBSE|            1757     0.13734059E-007     0.10000000E+002                7
 RTBSE| Simulation step         Convergence     Electron number  ETRS Iterations
 RTBSE|            1758     0.90720187E-007     0.10000000E+002                6
 RTBSE| Simulation step         Convergence     Electron number  ETRS Iterations
 RTBSE|            1759     0.64981640E-007     0.10000000E+002                6
 RTBSE| Simulation step         Convergence     Electron number  ETRS Iterations
 RTBSE|            1760     0.77968365E-007     0.10000000E+002                6
 RTBSE| Simulation step         Convergence     Electron number  ETRS Iterations
 RTBSE|            1761     0.17244022E-007     0.10000000E+002                7
 RTBSE| Simulation step         Convergence     Electron number  ETRS Iterations
 RTBSE|            1762     0.25979661E-007     0.10000000E+002                7
 RTBSE| Simulation step         Convergence     Electron number  ETRS Iterations
 RTBSE|            1763     0.34845740E-007     0.10000000E+002                7
 RTBSE| Simulation step         Convergence     Electron number  ETRS Iterations
 RTBSE|            1764     0.43201164E-007     0.10000000E+002                7
 RTBSE| Simulation step         Convergence     Electron number  ETRS Iterations
 RTBSE|            1765     0.50452016E-007     0.10000000E+002                7
 RTBSE| Simulation step         Convergence     Electron number  ETRS Iterations
 RTBSE|            1766     0.56002317E-007     0.10000000E+002                7
 RTBSE| Simulation step         Convergence     Electron number  ETRS Iterations
 RTBSE|            1767     0.59545077E-007     0.10000000E+002                7
 RTBSE| Simulation step         Convergence     Electron number  ETRS Iterations
 RTBSE|            1768     0.60901165E-007     0.10000000E+002                7
 RTBSE| Simulation step         Convergence     Electron number  ETRS Iterations
 RTBSE|            1769     0.60188997E-007     0.10000000E+002                7
 RTBSE| Simulation step         Convergence     Electron number  ETRS Iterations
 RTBSE|            1770     0.57739550E-007     0.10000000E+002                7
 RTBSE| Simulation step         Convergence     Electron number  ETRS Iterations
 RTBSE|            1771     0.53974409E-007     0.10000000E+002                7
 RTBSE| Simulation step         Convergence     Electron number  ETRS Iterations
 RTBSE|            1772     0.49377855E-007     0.10000000E+002                7
 RTBSE| Simulation step         Convergence     Electron number  ETRS Iterations
 RTBSE|            1773     0.44355934E-007     0.10000000E+002                7
 RTBSE| Simulation step         Convergence     Electron number  ETRS Iterations
 RTBSE|            1774     0.39247927E-007     0.10000000E+002                7
 RTBSE| Simulation step         Convergence     Electron number  ETRS Iterations
 RTBSE|            1775     0.34254887E-007     0.10000000E+002                7
 RTBSE| Simulation step         Convergence     Electron number  ETRS Iterations
 RTBSE|            1776     0.29464767E-007     0.10000000E+002                7
 RTBSE| Simulation step         Convergence     Electron number  ETRS Iterations
 RTBSE|            1777     0.24915368E-007     0.10000000E+002                7
 RTBSE| Simulation step         Convergence     Electron number  ETRS Iterations
 RTBSE|            1778     0.20573387E-007     0.10000000E+002                7
 RTBSE| Simulation step         Convergence     Electron number  ETRS Iterations
 RTBSE|            1779     0.17178723E-007     0.10000000E+002                7
 RTBSE| Simulation step         Convergence     Electron number  ETRS Iterations
 RTBSE|            1780     0.14870891E-007     0.10000000E+002                7
 RTBSE| Simulation step         Convergence     Electron number  ETRS Iterations
 RTBSE|            1781     0.92127001E-007     0.10000000E+002                6
 RTBSE| Simulation step         Convergence     Electron number  ETRS Iterations
 RTBSE|            1782     0.70897908E-007     0.10000000E+002                6
 RTBSE| Simulation step         Convergence     Electron number  ETRS Iterations
 RTBSE|            1783     0.49672665E-007     0.10000000E+002                6
 RTBSE| Simulation step         Convergence     Electron number  ETRS Iterations
 RTBSE|            1784     0.33765427E-007     0.10000000E+002                6
 RTBSE| Simulation step         Convergence     Electron number  ETRS Iterations
 RTBSE|            1785     0.49575419E-007     0.10000000E+002                6
 RTBSE| Simulation step         Convergence     Electron number  ETRS Iterations
 RTBSE|            1786     0.66582326E-007     0.10000000E+002                6
 RTBSE| Simulation step         Convergence     Electron number  ETRS Iterations
 RTBSE|            1787     0.82265093E-007     0.10000000E+002                6
 RTBSE| Simulation step         Convergence     Electron number  ETRS Iterations
 RTBSE|            1788     0.95619986E-007     0.10000000E+002                6
 RTBSE| Simulation step         Convergence     Electron number  ETRS Iterations
 RTBSE|            1789     0.16492957E-007     0.10000000E+002                7
 RTBSE| Simulation step         Convergence     Electron number  ETRS Iterations
 RTBSE|            1790     0.17890750E-007     0.10000000E+002                7
 RTBSE| Simulation step         Convergence     Electron number  ETRS Iterations
 RTBSE|            1791     0.18777700E-007     0.10000000E+002                7
 RTBSE| Simulation step         Convergence     Electron number  ETRS Iterations
 RTBSE|            1792     0.19227939E-007     0.10000000E+002                7
 RTBSE| Simulation step         Convergence     Electron number  ETRS Iterations
 RTBSE|            1793     0.19330618E-007     0.10000000E+002                7
 RTBSE| Simulation step         Convergence     Electron number  ETRS Iterations
 RTBSE|            1794     0.19198715E-007     0.10000000E+002                7
 RTBSE| Simulation step         Convergence     Electron number  ETRS Iterations
 RTBSE|            1795     0.18966426E-007     0.10000000E+002                7
 RTBSE| Simulation step         Convergence     Electron number  ETRS Iterations
 RTBSE|            1796     0.18765887E-007     0.10000000E+002                7
 RTBSE| Simulation step         Convergence     Electron number  ETRS Iterations
 RTBSE|            1797     0.18696533E-007     0.10000000E+002                7
 RTBSE| Simulation step         Convergence     Electron number  ETRS Iterations
 RTBSE|            1798     0.18819004E-007     0.10000000E+002                7
 RTBSE| Simulation step         Convergence     Electron number  ETRS Iterations
 RTBSE|            1799     0.19172321E-007     0.10000000E+002                7
 RTBSE| Simulation step         Convergence     Electron number  ETRS Iterations
 RTBSE|            1800     0.19691876E-007     0.10000000E+002                7
 RTBSE| Simulation step         Convergence     Electron number  ETRS Iterations
 RTBSE|            1801     0.20293371E-007     0.10000000E+002                7
 RTBSE| Simulation step         Convergence     Electron number  ETRS Iterations
 RTBSE|            1802     0.20809847E-007     0.10000000E+002                7
 RTBSE| Simulation step         Convergence     Electron number  ETRS Iterations
 RTBSE|            1803     0.21097940E-007     0.10000000E+002                7
 RTBSE| Simulation step         Convergence     Electron number  ETRS Iterations
 RTBSE|            1804     0.20954730E-007     0.10000000E+002                7
 RTBSE| Simulation step         Convergence     Electron number  ETRS Iterations
 RTBSE|            1805     0.20140654E-007     0.10000000E+002                7
 RTBSE| Simulation step         Convergence     Electron number  ETRS Iterations
 RTBSE|            1806     0.18750712E-007     0.10000000E+002                7
 RTBSE| Simulation step         Convergence     Electron number  ETRS Iterations
 RTBSE|            1807     0.17317257E-007     0.10000000E+002                7
 RTBSE| Simulation step         Convergence     Electron number  ETRS Iterations
 RTBSE|            1808     0.16284903E-007     0.10000000E+002                7
 RTBSE| Simulation step         Convergence     Electron number  ETRS Iterations
 RTBSE|            1809     0.14343612E-007     0.10000000E+002                7
 RTBSE| Simulation step         Convergence     Electron number  ETRS Iterations
 RTBSE|            1810     0.82043834E-007     0.10000000E+002                6
 RTBSE| Simulation step         Convergence     Electron number  ETRS Iterations
 RTBSE|            1811     0.71578917E-007     0.10000000E+002                6
 RTBSE| Simulation step         Convergence     Electron number  ETRS Iterations
 RTBSE|            1812     0.16227505E-007     0.10000000E+002                7
 RTBSE| Simulation step         Convergence     Electron number  ETRS Iterations
 RTBSE|            1813     0.25404797E-007     0.10000000E+002                7
 RTBSE| Simulation step         Convergence     Electron number  ETRS Iterations
 RTBSE|            1814     0.34415375E-007     0.10000000E+002                7
 RTBSE| Simulation step         Convergence     Electron number  ETRS Iterations
 RTBSE|            1815     0.42656295E-007     0.10000000E+002                7
 RTBSE| Simulation step         Convergence     Electron number  ETRS Iterations
 RTBSE|            1816     0.49576617E-007     0.10000000E+002                7
 RTBSE| Simulation step         Convergence     Electron number  ETRS Iterations
 RTBSE|            1817     0.54752384E-007     0.10000000E+002                7
 RTBSE| Simulation step         Convergence     Electron number  ETRS Iterations
 RTBSE|            1818     0.57983254E-007     0.10000000E+002                7
 RTBSE| Simulation step         Convergence     Electron number  ETRS Iterations
 RTBSE|            1819     0.59209542E-007     0.10000000E+002                7
 RTBSE| Simulation step         Convergence     Electron number  ETRS Iterations
 RTBSE|            1820     0.58657628E-007     0.10000000E+002                7
 RTBSE| Simulation step         Convergence     Electron number  ETRS Iterations
 RTBSE|            1821     0.56616810E-007     0.10000000E+002                7
 RTBSE| Simulation step         Convergence     Electron number  ETRS Iterations
 RTBSE|            1822     0.53466061E-007     0.10000000E+002                7
 RTBSE| Simulation step         Convergence     Electron number  ETRS Iterations
 RTBSE|            1823     0.49597666E-007     0.10000000E+002                7
 RTBSE| Simulation step         Convergence     Electron number  ETRS Iterations
 RTBSE|            1824     0.45348141E-007     0.10000000E+002                7
 RTBSE| Simulation step         Convergence     Electron number  ETRS Iterations
 RTBSE|            1825     0.40914286E-007     0.10000000E+002                7
 RTBSE| Simulation step         Convergence     Electron number  ETRS Iterations
 RTBSE|            1826     0.36504605E-007     0.10000000E+002                7
 RTBSE| Simulation step         Convergence     Electron number  ETRS Iterations
 RTBSE|            1827     0.32174816E-007     0.10000000E+002                7
 RTBSE| Simulation step         Convergence     Electron number  ETRS Iterations
 RTBSE|            1828     0.27943099E-007     0.10000000E+002                7
 RTBSE| Simulation step         Convergence     Electron number  ETRS Iterations
 RTBSE|            1829     0.23786995E-007     0.10000000E+002                7
 RTBSE| Simulation step         Convergence     Electron number  ETRS Iterations
 RTBSE|            1830     0.19646156E-007     0.10000000E+002                7
 RTBSE| Simulation step         Convergence     Electron number  ETRS Iterations
 RTBSE|            1831     0.16615426E-007     0.10000000E+002                7
 RTBSE| Simulation step         Convergence     Electron number  ETRS Iterations
 RTBSE|            1832     0.14315168E-007     0.10000000E+002                7
 RTBSE| Simulation step         Convergence     Electron number  ETRS Iterations
 RTBSE|            1833     0.86610520E-007     0.10000000E+002                6
 RTBSE| Simulation step         Convergence     Electron number  ETRS Iterations
 RTBSE|            1834     0.65124752E-007     0.10000000E+002                6
 RTBSE| Simulation step         Convergence     Electron number  ETRS Iterations
 RTBSE|            1835     0.42739197E-007     0.10000000E+002                6
 RTBSE| Simulation step         Convergence     Electron number  ETRS Iterations
 RTBSE|            1836     0.40034165E-007     0.10000000E+002                6
 RTBSE| Simulation step         Convergence     Electron number  ETRS Iterations
 RTBSE|            1837     0.57436596E-007     0.10000000E+002                6
 RTBSE| Simulation step         Convergence     Electron number  ETRS Iterations
 RTBSE|            1838     0.74347865E-007     0.10000000E+002                6
 RTBSE| Simulation step         Convergence     Electron number  ETRS Iterations
 RTBSE|            1839     0.88823909E-007     0.10000000E+002                6
 RTBSE| Simulation step         Convergence     Electron number  ETRS Iterations
 RTBSE|            1840     0.15338379E-007     0.10000000E+002                7
 RTBSE| Simulation step         Convergence     Electron number  ETRS Iterations
 RTBSE|            1841     0.16831784E-007     0.10000000E+002                7
 RTBSE| Simulation step         Convergence     Electron number  ETRS Iterations
 RTBSE|            1842     0.17759586E-007     0.10000000E+002                7
 RTBSE| Simulation step         Convergence     Electron number  ETRS Iterations
 RTBSE|            1843     0.18181269E-007     0.10000000E+002                7
 RTBSE| Simulation step         Convergence     Electron number  ETRS Iterations
 RTBSE|            1844     0.18270948E-007     0.10000000E+002                7
 RTBSE| Simulation step         Convergence     Electron number  ETRS Iterations
 RTBSE|            1845     0.18139709E-007     0.10000000E+002                7
 RTBSE| Simulation step         Convergence     Electron number  ETRS Iterations
 RTBSE|            1846     0.18001674E-007     0.10000000E+002                7
 RTBSE| Simulation step         Convergence     Electron number  ETRS Iterations
 RTBSE|            1847     0.17983855E-007     0.10000000E+002                7
 RTBSE| Simulation step         Convergence     Electron number  ETRS Iterations
 RTBSE|            1848     0.18224215E-007     0.10000000E+002                7
 RTBSE| Simulation step         Convergence     Electron number  ETRS Iterations
 RTBSE|            1849     0.18774065E-007     0.10000000E+002                7
 RTBSE| Simulation step         Convergence     Electron number  ETRS Iterations
 RTBSE|            1850     0.19629049E-007     0.10000000E+002                7
 RTBSE| Simulation step         Convergence     Electron number  ETRS Iterations
 RTBSE|            1851     0.20695641E-007     0.10000000E+002                7
 RTBSE| Simulation step         Convergence     Electron number  ETRS Iterations
 RTBSE|            1852     0.21817516E-007     0.10000000E+002                7
 RTBSE| Simulation step         Convergence     Electron number  ETRS Iterations
 RTBSE|            1853     0.22799609E-007     0.10000000E+002                7
 RTBSE| Simulation step         Convergence     Electron number  ETRS Iterations
 RTBSE|            1854     0.23409532E-007     0.10000000E+002                7
 RTBSE| Simulation step         Convergence     Electron number  ETRS Iterations
 RTBSE|            1855     0.23404500E-007     0.10000000E+002                7
 RTBSE| Simulation step         Convergence     Electron number  ETRS Iterations
 RTBSE|            1856     0.22579963E-007     0.10000000E+002                7
 RTBSE| Simulation step         Convergence     Electron number  ETRS Iterations
 RTBSE|            1857     0.20954739E-007     0.10000000E+002                7
 RTBSE| Simulation step         Convergence     Electron number  ETRS Iterations
 RTBSE|            1858     0.18392840E-007     0.10000000E+002                7
 RTBSE| Simulation step         Convergence     Electron number  ETRS Iterations
 RTBSE|            1859     0.17048282E-007     0.10000000E+002                7
 RTBSE| Simulation step         Convergence     Electron number  ETRS Iterations
 RTBSE|            1860     0.14905692E-007     0.10000000E+002                7
 RTBSE| Simulation step         Convergence     Electron number  ETRS Iterations
 RTBSE|            1861     0.88541395E-007     0.10000000E+002                6
 RTBSE| Simulation step         Convergence     Electron number  ETRS Iterations
 RTBSE|            1862     0.63441940E-007     0.10000000E+002                6
 RTBSE| Simulation step         Convergence     Electron number  ETRS Iterations
 RTBSE|            1863     0.14350152E-007     0.10000000E+002                7
 RTBSE| Simulation step         Convergence     Electron number  ETRS Iterations
 RTBSE|            1864     0.23101903E-007     0.10000000E+002                7
 RTBSE| Simulation step         Convergence     Electron number  ETRS Iterations
 RTBSE|            1865     0.31614455E-007     0.10000000E+002                7
 RTBSE| Simulation step         Convergence     Electron number  ETRS Iterations
 RTBSE|            1866     0.39413718E-007     0.10000000E+002                7
 RTBSE| Simulation step         Convergence     Electron number  ETRS Iterations
 RTBSE|            1867     0.46054029E-007     0.10000000E+002                7
 RTBSE| Simulation step         Convergence     Electron number  ETRS Iterations
 RTBSE|            1868     0.51207529E-007     0.10000000E+002                7
 RTBSE| Simulation step         Convergence     Electron number  ETRS Iterations
 RTBSE|            1869     0.54654031E-007     0.10000000E+002                7
 RTBSE| Simulation step         Convergence     Electron number  ETRS Iterations
 RTBSE|            1870     0.56363803E-007     0.10000000E+002                7
 RTBSE| Simulation step         Convergence     Electron number  ETRS Iterations
 RTBSE|            1871     0.56455362E-007     0.10000000E+002                7
 RTBSE| Simulation step         Convergence     Electron number  ETRS Iterations
 RTBSE|            1872     0.55153700E-007     0.10000000E+002                7
 RTBSE| Simulation step         Convergence     Electron number  ETRS Iterations
 RTBSE|            1873     0.52759964E-007     0.10000000E+002                7
 RTBSE| Simulation step         Convergence     Electron number  ETRS Iterations
 RTBSE|            1874     0.49616785E-007     0.10000000E+002                7
 RTBSE| Simulation step         Convergence     Electron number  ETRS Iterations
 RTBSE|            1875     0.46033218E-007     0.10000000E+002                7
 RTBSE| Simulation step         Convergence     Electron number  ETRS Iterations
 RTBSE|            1876     0.42239142E-007     0.10000000E+002                7
 RTBSE| Simulation step         Convergence     Electron number  ETRS Iterations
 RTBSE|            1877     0.38404222E-007     0.10000000E+002                7
 RTBSE| Simulation step         Convergence     Electron number  ETRS Iterations
 RTBSE|            1878     0.34612914E-007     0.10000000E+002                7
 RTBSE| Simulation step         Convergence     Electron number  ETRS Iterations
 RTBSE|            1879     0.30868811E-007     0.10000000E+002                7
 RTBSE| Simulation step         Convergence     Electron number  ETRS Iterations
 RTBSE|            1880     0.27104388E-007     0.10000000E+002                7
 RTBSE| Simulation step         Convergence     Electron number  ETRS Iterations
 RTBSE|            1881     0.23263710E-007     0.10000000E+002                7
 RTBSE| Simulation step         Convergence     Electron number  ETRS Iterations
 RTBSE|            1882     0.19270150E-007     0.10000000E+002                7
 RTBSE| Simulation step         Convergence     Electron number  ETRS Iterations
 RTBSE|            1883     0.16509560E-007     0.10000000E+002                7
 RTBSE| Simulation step         Convergence     Electron number  ETRS Iterations
 RTBSE|            1884     0.14135103E-007     0.10000000E+002                7
 RTBSE| Simulation step         Convergence     Electron number  ETRS Iterations
 RTBSE|            1885     0.83523197E-007     0.10000000E+002                6
 RTBSE| Simulation step         Convergence     Electron number  ETRS Iterations
 RTBSE|            1886     0.60426027E-007     0.10000000E+002                6
 RTBSE| Simulation step         Convergence     Electron number  ETRS Iterations
 RTBSE|            1887     0.36399511E-007     0.10000000E+002                6
 RTBSE| Simulation step         Convergence     Electron number  ETRS Iterations
 RTBSE|            1888     0.46546230E-007     0.10000000E+002                6
 RTBSE| Simulation step         Convergence     Electron number  ETRS Iterations
 RTBSE|            1889     0.64446327E-007     0.10000000E+002                6
 RTBSE| Simulation step         Convergence     Electron number  ETRS Iterations
 RTBSE|            1890     0.80493336E-007     0.10000000E+002                6
 RTBSE| Simulation step         Convergence     Electron number  ETRS Iterations
 RTBSE|            1891     0.93314905E-007     0.10000000E+002                6
 RTBSE| Simulation step         Convergence     Electron number  ETRS Iterations
 RTBSE|            1892     0.15716978E-007     0.10000000E+002                7
 RTBSE| Simulation step         Convergence     Electron number  ETRS Iterations
 RTBSE|            1893     0.16853592E-007     0.10000000E+002                7
 RTBSE| Simulation step         Convergence     Electron number  ETRS Iterations
 RTBSE|            1894     0.17494145E-007     0.10000000E+002                7
 RTBSE| Simulation step         Convergence     Electron number  ETRS Iterations
 RTBSE|            1895     0.17772776E-007     0.10000000E+002                7
 RTBSE| Simulation step         Convergence     Electron number  ETRS Iterations
 RTBSE|            1896     0.17879506E-007     0.10000000E+002                7
 RTBSE| Simulation step         Convergence     Electron number  ETRS Iterations
 RTBSE|            1897     0.17941717E-007     0.10000000E+002                7
 RTBSE| Simulation step         Convergence     Electron number  ETRS Iterations
 RTBSE|            1898     0.18157265E-007     0.10000000E+002                7
 RTBSE| Simulation step         Convergence     Electron number  ETRS Iterations
 RTBSE|            1899     0.18620293E-007     0.10000000E+002                7
 RTBSE| Simulation step         Convergence     Electron number  ETRS Iterations
 RTBSE|            1900     0.19360244E-007     0.10000000E+002                7
 RTBSE| Simulation step         Convergence     Electron number  ETRS Iterations
 RTBSE|            1901     0.20334880E-007     0.10000000E+002                7
 RTBSE| Simulation step         Convergence     Electron number  ETRS Iterations
 RTBSE|            1902     0.21456515E-007     0.10000000E+002                7
 RTBSE| Simulation step         Convergence     Electron number  ETRS Iterations
 RTBSE|            1903     0.22554577E-007     0.10000000E+002                7
 RTBSE| Simulation step         Convergence     Electron number  ETRS Iterations
 RTBSE|            1904     0.23433533E-007     0.10000000E+002                7
 RTBSE| Simulation step         Convergence     Electron number  ETRS Iterations
 RTBSE|            1905     0.23891307E-007     0.10000000E+002                7
 RTBSE| Simulation step         Convergence     Electron number  ETRS Iterations
 RTBSE|            1906     0.23733461E-007     0.10000000E+002                7
 RTBSE| Simulation step         Convergence     Electron number  ETRS Iterations
 RTBSE|            1907     0.22805834E-007     0.10000000E+002                7
 RTBSE| Simulation step         Convergence     Electron number  ETRS Iterations
 RTBSE|            1908     0.21120038E-007     0.10000000E+002                7
 RTBSE| Simulation step         Convergence     Electron number  ETRS Iterations
 RTBSE|            1909     0.18573642E-007     0.10000000E+002                7
 RTBSE| Simulation step         Convergence     Electron number  ETRS Iterations
 RTBSE|            1910     0.16689827E-007     0.10000000E+002                7
 RTBSE| Simulation step         Convergence     Electron number  ETRS Iterations
 RTBSE|            1911     0.14730884E-007     0.10000000E+002                7
 RTBSE| Simulation step         Convergence     Electron number  ETRS Iterations
 RTBSE|            1912     0.93944059E-007     0.10000000E+002                6
 RTBSE| Simulation step         Convergence     Electron number  ETRS Iterations
 RTBSE|            1913     0.60799576E-007     0.10000000E+002                6
 RTBSE| Simulation step         Convergence     Electron number  ETRS Iterations
 RTBSE|            1914     0.82189883E-007     0.10000000E+002                6
 RTBSE| Simulation step         Convergence     Electron number  ETRS Iterations
 RTBSE|            1915     0.19199832E-007     0.10000000E+002                7
 RTBSE| Simulation step         Convergence     Electron number  ETRS Iterations
 RTBSE|            1916     0.27349307E-007     0.10000000E+002                7
 RTBSE| Simulation step         Convergence     Electron number  ETRS Iterations
 RTBSE|            1917     0.35035919E-007     0.10000000E+002                7
 RTBSE| Simulation step         Convergence     Electron number  ETRS Iterations
 RTBSE|            1918     0.41839871E-007     0.10000000E+002                7
 RTBSE| Simulation step         Convergence     Electron number  ETRS Iterations
 RTBSE|            1919     0.47343015E-007     0.10000000E+002                7
 RTBSE| Simulation step         Convergence     Electron number  ETRS Iterations
 RTBSE|            1920     0.51289873E-007     0.10000000E+002                7
 RTBSE| Simulation step         Convergence     Electron number  ETRS Iterations
 RTBSE|            1921     0.53561088E-007     0.10000000E+002                7
 RTBSE| Simulation step         Convergence     Electron number  ETRS Iterations
 RTBSE|            1922     0.54210219E-007     0.10000000E+002                7
 RTBSE| Simulation step         Convergence     Electron number  ETRS Iterations
 RTBSE|            1923     0.53475840E-007     0.10000000E+002                7
 RTBSE| Simulation step         Convergence     Electron number  ETRS Iterations
 RTBSE|            1924     0.51611450E-007     0.10000000E+002                7
 RTBSE| Simulation step         Convergence     Electron number  ETRS Iterations
 RTBSE|            1925     0.49003247E-007     0.10000000E+002                7
 RTBSE| Simulation step         Convergence     Electron number  ETRS Iterations
 RTBSE|            1926     0.45967504E-007     0.10000000E+002                7
 RTBSE| Simulation step         Convergence     Electron number  ETRS Iterations
 RTBSE|            1927     0.42793113E-007     0.10000000E+002                7
 RTBSE| Simulation step         Convergence     Electron number  ETRS Iterations
 RTBSE|            1928     0.39613068E-007     0.10000000E+002                7
 RTBSE| Simulation step         Convergence     Electron number  ETRS Iterations
 RTBSE|            1929     0.36471348E-007     0.10000000E+002                7
 RTBSE| Simulation step         Convergence     Electron number  ETRS Iterations
 RTBSE|            1930     0.33339918E-007     0.10000000E+002                7
 RTBSE| Simulation step         Convergence     Electron number  ETRS Iterations
 RTBSE|            1931     0.30109113E-007     0.10000000E+002                7
 RTBSE| Simulation step         Convergence     Electron number  ETRS Iterations
 RTBSE|            1932     0.26666444E-007     0.10000000E+002                7
 RTBSE| Simulation step         Convergence     Electron number  ETRS Iterations
 RTBSE|            1933     0.22905306E-007     0.10000000E+002                7
 RTBSE| Simulation step         Convergence     Electron number  ETRS Iterations
 RTBSE|            1934     0.18830932E-007     0.10000000E+002                7
 RTBSE| Simulation step         Convergence     Electron number  ETRS Iterations
 RTBSE|            1935     0.16392819E-007     0.10000000E+002                7
 RTBSE| Simulation step         Convergence     Electron number  ETRS Iterations
 RTBSE|            1936     0.13860557E-007     0.10000000E+002                7
 RTBSE| Simulation step         Convergence     Electron number  ETRS Iterations
 RTBSE|            1937     0.79440915E-007     0.10000000E+002                6
 RTBSE| Simulation step         Convergence     Electron number  ETRS Iterations
 RTBSE|            1938     0.54891550E-007     0.10000000E+002                6
 RTBSE| Simulation step         Convergence     Electron number  ETRS Iterations
 RTBSE|            1939     0.35850184E-007     0.10000000E+002                6
 RTBSE| Simulation step         Convergence     Electron number  ETRS Iterations
 RTBSE|            1940     0.53723090E-007     0.10000000E+002                6
 RTBSE| Simulation step         Convergence     Electron number  ETRS Iterations
 RTBSE|            1941     0.72002227E-007     0.10000000E+002                6
 RTBSE| Simulation step         Convergence     Electron number  ETRS Iterations
 RTBSE|            1942     0.87749449E-007     0.10000000E+002                6
 RTBSE| Simulation step         Convergence     Electron number  ETRS Iterations
 RTBSE|            1943     0.15059915E-007     0.10000000E+002                7
 RTBSE| Simulation step         Convergence     Electron number  ETRS Iterations
 RTBSE|            1944     0.16708157E-007     0.10000000E+002                7
 RTBSE| Simulation step         Convergence     Electron number  ETRS Iterations
 RTBSE|            1945     0.17784740E-007     0.10000000E+002                7
 RTBSE| Simulation step         Convergence     Electron number  ETRS Iterations
 RTBSE|            1946     0.18393212E-007     0.10000000E+002                7
 RTBSE| Simulation step         Convergence     Electron number  ETRS Iterations
 RTBSE|            1947     0.18649116E-007     0.10000000E+002                7
 RTBSE| Simulation step         Convergence     Electron number  ETRS Iterations
 RTBSE|            1948     0.18714005E-007     0.10000000E+002                7
 RTBSE| Simulation step         Convergence     Electron number  ETRS Iterations
 RTBSE|            1949     0.18757933E-007     0.10000000E+002                7
 RTBSE| Simulation step         Convergence     Electron number  ETRS Iterations
 RTBSE|            1950     0.18884927E-007     0.10000000E+002                7
 RTBSE| Simulation step         Convergence     Electron number  ETRS Iterations
 RTBSE|            1951     0.19178008E-007     0.10000000E+002                7
 RTBSE| Simulation step         Convergence     Electron number  ETRS Iterations
 RTBSE|            1952     0.19666911E-007     0.10000000E+002                7
 RTBSE| Simulation step         Convergence     Electron number  ETRS Iterations
 RTBSE|            1953     0.20301874E-007     0.10000000E+002                7
 RTBSE| Simulation step         Convergence     Electron number  ETRS Iterations
 RTBSE|            1954     0.21004323E-007     0.10000000E+002                7
 RTBSE| Simulation step         Convergence     Electron number  ETRS Iterations
 RTBSE|            1955     0.21640731E-007     0.10000000E+002                7
 RTBSE| Simulation step         Convergence     Electron number  ETRS Iterations
 RTBSE|            1956     0.22084691E-007     0.10000000E+002                7
 RTBSE| Simulation step         Convergence     Electron number  ETRS Iterations
 RTBSE|            1957     0.22146510E-007     0.10000000E+002                7
 RTBSE| Simulation step         Convergence     Electron number  ETRS Iterations
 RTBSE|            1958     0.21708980E-007     0.10000000E+002                7
 RTBSE| Simulation step         Convergence     Electron number  ETRS Iterations
 RTBSE|            1959     0.20719818E-007     0.10000000E+002                7
 RTBSE| Simulation step         Convergence     Electron number  ETRS Iterations
 RTBSE|            1960     0.19028483E-007     0.10000000E+002                7
 RTBSE| Simulation step         Convergence     Electron number  ETRS Iterations
 RTBSE|            1961     0.16911526E-007     0.10000000E+002                7
 RTBSE| Simulation step         Convergence     Electron number  ETRS Iterations
 RTBSE|            1962     0.15209906E-007     0.10000000E+002                7
 RTBSE| Simulation step         Convergence     Electron number  ETRS Iterations
 RTBSE|            1963     0.13127952E-007     0.10000000E+002                7
 RTBSE| Simulation step         Convergence     Electron number  ETRS Iterations
 RTBSE|            1964     0.78662151E-007     0.10000000E+002                6
 RTBSE| Simulation step         Convergence     Electron number  ETRS Iterations
 RTBSE|            1965     0.60994373E-007     0.10000000E+002                6
 RTBSE| Simulation step         Convergence     Electron number  ETRS Iterations
 RTBSE|            1966     0.95219220E-007     0.10000000E+002                6
 RTBSE| Simulation step         Convergence     Electron number  ETRS Iterations
 RTBSE|            1967     0.22386229E-007     0.10000000E+002                7
 RTBSE| Simulation step         Convergence     Electron number  ETRS Iterations
 RTBSE|            1968     0.30260022E-007     0.10000000E+002                7
 RTBSE| Simulation step         Convergence     Electron number  ETRS Iterations
 RTBSE|            1969     0.37398616E-007     0.10000000E+002                7
 RTBSE| Simulation step         Convergence     Electron number  ETRS Iterations
 RTBSE|            1970     0.43324754E-007     0.10000000E+002                7
 RTBSE| Simulation step         Convergence     Electron number  ETRS Iterations
 RTBSE|            1971     0.47729570E-007     0.10000000E+002                7
 RTBSE| Simulation step         Convergence     Electron number  ETRS Iterations
 RTBSE|            1972     0.50452110E-007     0.10000000E+002                7
 RTBSE| Simulation step         Convergence     Electron number  ETRS Iterations
 RTBSE|            1973     0.51572385E-007     0.10000000E+002                7
 RTBSE| Simulation step         Convergence     Electron number  ETRS Iterations
 RTBSE|            1974     0.51292461E-007     0.10000000E+002                7
 RTBSE| Simulation step         Convergence     Electron number  ETRS Iterations
 RTBSE|            1975     0.49943254E-007     0.10000000E+002                7
 RTBSE| Simulation step         Convergence     Electron number  ETRS Iterations
 RTBSE|            1976     0.47861712E-007     0.10000000E+002                7
 RTBSE| Simulation step         Convergence     Electron number  ETRS Iterations
 RTBSE|            1977     0.45392627E-007     0.10000000E+002                7
 RTBSE| Simulation step         Convergence     Electron number  ETRS Iterations
 RTBSE|            1978     0.42759375E-007     0.10000000E+002                7
 RTBSE| Simulation step         Convergence     Electron number  ETRS Iterations
 RTBSE|            1979     0.40107570E-007     0.10000000E+002                7
 RTBSE| Simulation step         Convergence     Electron number  ETRS Iterations
 RTBSE|            1980     0.37481946E-007     0.10000000E+002                7
 RTBSE| Simulation step         Convergence     Electron number  ETRS Iterations
 RTBSE|            1981     0.34868592E-007     0.10000000E+002                7
 RTBSE| Simulation step         Convergence     Electron number  ETRS Iterations
 RTBSE|            1982     0.32118276E-007     0.10000000E+002                7
 RTBSE| Simulation step         Convergence     Electron number  ETRS Iterations
 RTBSE|            1983     0.29128296E-007     0.10000000E+002                7
 RTBSE| Simulation step         Convergence     Electron number  ETRS Iterations
 RTBSE|            1984     0.25784483E-007     0.10000000E+002                7
 RTBSE| Simulation step         Convergence     Electron number  ETRS Iterations
 RTBSE|            1985     0.22046776E-007     0.10000000E+002                7
 RTBSE| Simulation step         Convergence     Electron number  ETRS Iterations
 RTBSE|            1986     0.18258235E-007     0.10000000E+002                7
 RTBSE| Simulation step         Convergence     Electron number  ETRS Iterations
 RTBSE|            1987     0.16114889E-007     0.10000000E+002                7
 RTBSE| Simulation step         Convergence     Electron number  ETRS Iterations
 RTBSE|            1988     0.98442581E-007     0.10000000E+002                6
 RTBSE| Simulation step         Convergence     Electron number  ETRS Iterations
 RTBSE|            1989     0.74703815E-007     0.10000000E+002                6
 RTBSE| Simulation step         Convergence     Electron number  ETRS Iterations
 RTBSE|            1990     0.48820128E-007     0.10000000E+002                6
 RTBSE| Simulation step         Convergence     Electron number  ETRS Iterations
 RTBSE|            1991     0.42716892E-007     0.10000000E+002                6
 RTBSE| Simulation step         Convergence     Electron number  ETRS Iterations
 RTBSE|            1992     0.63080468E-007     0.10000000E+002                6
 RTBSE| Simulation step         Convergence     Electron number  ETRS Iterations
 RTBSE|            1993     0.82407127E-007     0.10000000E+002                6
 RTBSE| Simulation step         Convergence     Electron number  ETRS Iterations
 RTBSE|            1994     0.98305081E-007     0.10000000E+002                6
 RTBSE| Simulation step         Convergence     Electron number  ETRS Iterations
 RTBSE|            1995     0.16751243E-007     0.10000000E+002                7
 RTBSE| Simulation step         Convergence     Electron number  ETRS Iterations
 RTBSE|            1996     0.18192808E-007     0.10000000E+002                7
 RTBSE| Simulation step         Convergence     Electron number  ETRS Iterations
 RTBSE|            1997     0.18952268E-007     0.10000000E+002                7
 RTBSE| Simulation step         Convergence     Electron number  ETRS Iterations
 RTBSE|            1998     0.19116654E-007     0.10000000E+002                7
 RTBSE| Simulation step         Convergence     Electron number  ETRS Iterations
 RTBSE|            1999     0.18881674E-007     0.10000000E+002                7
 RTBSE| Simulation step         Convergence     Electron number  ETRS Iterations
 RTBSE|            2000     0.18394897E-007     0.10000000E+002                7
 RTBSE| Simulation step         Convergence     Electron number  ETRS Iterations
 RTBSE|            2001     0.17900733E-007     0.10000000E+002                7
 RTBSE| Simulation step         Convergence     Electron number  ETRS Iterations
 RTBSE|            2002     0.17572355E-007     0.10000000E+002                7
 RTBSE| Simulation step         Convergence     Electron number  ETRS Iterations
 RTBSE|            2003     0.17522167E-007     0.10000000E+002                7
 RTBSE| Simulation step         Convergence     Electron number  ETRS Iterations
 RTBSE|            2004     0.17797332E-007     0.10000000E+002                7
 RTBSE| Simulation step         Convergence     Electron number  ETRS Iterations
 RTBSE|            2005     0.18369090E-007     0.10000000E+002                7
 RTBSE| Simulation step         Convergence     Electron number  ETRS Iterations
 RTBSE|            2006     0.19151947E-007     0.10000000E+002                7
 RTBSE| Simulation step         Convergence     Electron number  ETRS Iterations
 RTBSE|            2007     0.20021468E-007     0.10000000E+002                7
 RTBSE| Simulation step         Convergence     Electron number  ETRS Iterations
 RTBSE|            2008     0.20799000E-007     0.10000000E+002                7
 RTBSE| Simulation step         Convergence     Electron number  ETRS Iterations
 RTBSE|            2009     0.21256708E-007     0.10000000E+002                7
 RTBSE| Simulation step         Convergence     Electron number  ETRS Iterations
 RTBSE|            2010     0.21306739E-007     0.10000000E+002                7
 RTBSE| Simulation step         Convergence     Electron number  ETRS Iterations
 RTBSE|            2011     0.20638731E-007     0.10000000E+002                7
 RTBSE| Simulation step         Convergence     Electron number  ETRS Iterations
 RTBSE|            2012     0.18877116E-007     0.10000000E+002                7
 RTBSE| Simulation step         Convergence     Electron number  ETRS Iterations
 RTBSE|            2013     0.17012910E-007     0.10000000E+002                7
 RTBSE| Simulation step         Convergence     Electron number  ETRS Iterations
 RTBSE|            2014     0.15183305E-007     0.10000000E+002                7
 RTBSE| Simulation step         Convergence     Electron number  ETRS Iterations
 RTBSE|            2015     0.12570653E-007     0.10000000E+002                7
 RTBSE| Simulation step         Convergence     Electron number  ETRS Iterations
 RTBSE|            2016     0.69888298E-007     0.10000000E+002                6
 RTBSE| Simulation step         Convergence     Electron number  ETRS Iterations
 RTBSE|            2017     0.70727828E-007     0.10000000E+002                6
 RTBSE| Simulation step         Convergence     Electron number  ETRS Iterations
 RTBSE|            2018     0.17109939E-007     0.10000000E+002                7
 RTBSE| Simulation step         Convergence     Electron number  ETRS Iterations
 RTBSE|            2019     0.25262419E-007     0.10000000E+002                7
 RTBSE| Simulation step         Convergence     Electron number  ETRS Iterations
 RTBSE|            2020     0.32834147E-007     0.10000000E+002                7
 RTBSE| Simulation step         Convergence     Electron number  ETRS Iterations
 RTBSE|            2021     0.39343303E-007     0.10000000E+002                7
 RTBSE| Simulation step         Convergence     Electron number  ETRS Iterations
 RTBSE|            2022     0.44399782E-007     0.10000000E+002                7
 RTBSE| Simulation step         Convergence     Electron number  ETRS Iterations
 RTBSE|            2023     0.47815595E-007     0.10000000E+002                7
 RTBSE| Simulation step         Convergence     Electron number  ETRS Iterations
 RTBSE|            2024     0.49588216E-007     0.10000000E+002                7
 RTBSE| Simulation step         Convergence     Electron number  ETRS Iterations
 RTBSE|            2025     0.49910523E-007     0.10000000E+002                7
 RTBSE| Simulation step         Convergence     Electron number  ETRS Iterations
 RTBSE|            2026     0.49053764E-007     0.10000000E+002                7
 RTBSE| Simulation step         Convergence     Electron number  ETRS Iterations
 RTBSE|            2027     0.47328250E-007     0.10000000E+002                7
 RTBSE| Simulation step         Convergence     Electron number  ETRS Iterations
 RTBSE|            2028     0.45094314E-007     0.10000000E+002                7
 RTBSE| Simulation step         Convergence     Electron number  ETRS Iterations
 RTBSE|            2029     0.42625207E-007     0.10000000E+002                7
 RTBSE| Simulation step         Convergence     Electron number  ETRS Iterations
 RTBSE|            2030     0.40141114E-007     0.10000000E+002                7
 RTBSE| Simulation step         Convergence     Electron number  ETRS Iterations
 RTBSE|            2031     0.37730607E-007     0.10000000E+002                7
 RTBSE| Simulation step         Convergence     Electron number  ETRS Iterations
 RTBSE|            2032     0.35395859E-007     0.10000000E+002                7
 RTBSE| Simulation step         Convergence     Electron number  ETRS Iterations
 RTBSE|            2033     0.33044651E-007     0.10000000E+002                7
 RTBSE| Simulation step         Convergence     Electron number  ETRS Iterations
 RTBSE|            2034     0.30534944E-007     0.10000000E+002                7
 RTBSE| Simulation step         Convergence     Electron number  ETRS Iterations
 RTBSE|            2035     0.27733128E-007     0.10000000E+002                7
 RTBSE| Simulation step         Convergence     Electron number  ETRS Iterations
 RTBSE|            2036     0.24467207E-007     0.10000000E+002                7
 RTBSE| Simulation step         Convergence     Electron number  ETRS Iterations
 RTBSE|            2037     0.20689398E-007     0.10000000E+002                7
 RTBSE| Simulation step         Convergence     Electron number  ETRS Iterations
 RTBSE|            2038     0.17775817E-007     0.10000000E+002                7
 RTBSE| Simulation step         Convergence     Electron number  ETRS Iterations
 RTBSE|            2039     0.15367333E-007     0.10000000E+002                7
 RTBSE| Simulation step         Convergence     Electron number  ETRS Iterations
 RTBSE|            2040     0.89539560E-007     0.10000000E+002                6
 RTBSE| Simulation step         Convergence     Electron number  ETRS Iterations
 RTBSE|            2041     0.63254916E-007     0.10000000E+002                6
 RTBSE| Simulation step         Convergence     Electron number  ETRS Iterations
 RTBSE|            2042     0.35156714E-007     0.10000000E+002                6
 RTBSE| Simulation step         Convergence     Electron number  ETRS Iterations
 RTBSE|            2043     0.53510610E-007     0.10000000E+002                6
 RTBSE| Simulation step         Convergence     Electron number  ETRS Iterations
 RTBSE|            2044     0.74229077E-007     0.10000000E+002                6
 RTBSE| Simulation step         Convergence     Electron number  ETRS Iterations
 RTBSE|            2045     0.91626182E-007     0.10000000E+002                6
 RTBSE| Simulation step         Convergence     Electron number  ETRS Iterations
 RTBSE|            2046     0.15807745E-007     0.10000000E+002                7
 RTBSE| Simulation step         Convergence     Electron number  ETRS Iterations
 RTBSE|            2047     0.17346936E-007     0.10000000E+002                7
 RTBSE| Simulation step         Convergence     Electron number  ETRS Iterations
 RTBSE|            2048     0.18074093E-007     0.10000000E+002                7
 RTBSE| Simulation step         Convergence     Electron number  ETRS Iterations
 RTBSE|            2049     0.18111324E-007     0.10000000E+002                7
 RTBSE| Simulation step         Convergence     Electron number  ETRS Iterations
 RTBSE|            2050     0.17643415E-007     0.10000000E+002                7
 RTBSE| Simulation step         Convergence     Electron number  ETRS Iterations
 RTBSE|            2051     0.16901864E-007     0.10000000E+002                7
 RTBSE| Simulation step         Convergence     Electron number  ETRS Iterations
 RTBSE|            2052     0.96692139E-007     0.10000000E+002                6
 RTBSE| Simulation step         Convergence     Electron number  ETRS Iterations
 RTBSE|            2053     0.92551991E-007     0.10000000E+002                6
 RTBSE| Simulation step         Convergence     Electron number  ETRS Iterations
 RTBSE|            2054     0.90763320E-007     0.10000000E+002                6
 RTBSE| Simulation step         Convergence     Electron number  ETRS Iterations
 RTBSE|            2055     0.91738001E-007     0.10000000E+002                6
 RTBSE| Simulation step         Convergence     Electron number  ETRS Iterations
 RTBSE|            2056     0.95317922E-007     0.10000000E+002                6
 RTBSE| Simulation step         Convergence     Electron number  ETRS Iterations
 RTBSE|            2057     0.17685794E-007     0.10000000E+002                7
 RTBSE| Simulation step         Convergence     Electron number  ETRS Iterations
 RTBSE|            2058     0.19046265E-007     0.10000000E+002                7
 RTBSE| Simulation step         Convergence     Electron number  ETRS Iterations
 RTBSE|            2059     0.20394238E-007     0.10000000E+002                7
 RTBSE| Simulation step         Convergence     Electron number  ETRS Iterations
 RTBSE|            2060     0.21509515E-007     0.10000000E+002                7
 RTBSE| Simulation step         Convergence     Electron number  ETRS Iterations
 RTBSE|            2061     0.22187082E-007     0.10000000E+002                7
 RTBSE| Simulation step         Convergence     Electron number  ETRS Iterations
 RTBSE|            2062     0.22235912E-007     0.10000000E+002                7
 RTBSE| Simulation step         Convergence     Electron number  ETRS Iterations
 RTBSE|            2063     0.21201964E-007     0.10000000E+002                7
 RTBSE| Simulation step         Convergence     Electron number  ETRS Iterations
 RTBSE|            2064     0.18889821E-007     0.10000000E+002                7
 RTBSE| Simulation step         Convergence     Electron number  ETRS Iterations
 RTBSE|            2065     0.17355211E-007     0.10000000E+002                7
 RTBSE| Simulation step         Convergence     Electron number  ETRS Iterations
 RTBSE|            2066     0.15067547E-007     0.10000000E+002                7
 RTBSE| Simulation step         Convergence     Electron number  ETRS Iterations
 RTBSE|            2067     0.92905188E-007     0.10000000E+002                6
 RTBSE| Simulation step         Convergence     Electron number  ETRS Iterations
 RTBSE|            2068     0.58128745E-007     0.10000000E+002                6
 RTBSE| Simulation step         Convergence     Electron number  ETRS Iterations
 RTBSE|            2069     0.83632353E-007     0.10000000E+002                6
 RTBSE| Simulation step         Convergence     Electron number  ETRS Iterations
 RTBSE|            2070     0.20529219E-007     0.10000000E+002                7
 RTBSE| Simulation step         Convergence     Electron number  ETRS Iterations
 RTBSE|            2071     0.28579224E-007     0.10000000E+002                7
 RTBSE| Simulation step         Convergence     Electron number  ETRS Iterations
 RTBSE|            2072     0.35744103E-007     0.10000000E+002                7
 RTBSE| Simulation step         Convergence     Electron number  ETRS Iterations
 RTBSE|            2073     0.41537730E-007     0.10000000E+002                7
 RTBSE| Simulation step         Convergence     Electron number  ETRS Iterations
 RTBSE|            2074     0.45687483E-007     0.10000000E+002                7
 RTBSE| Simulation step         Convergence     Electron number  ETRS Iterations
 RTBSE|            2075     0.48042087E-007     0.10000000E+002                7
 RTBSE| Simulation step         Convergence     Electron number  ETRS Iterations
 RTBSE|            2076     0.48748096E-007     0.10000000E+002                7
 RTBSE| Simulation step         Convergence     Electron number  ETRS Iterations
 RTBSE|            2077     0.48063919E-007     0.10000000E+002                7
 RTBSE| Simulation step         Convergence     Electron number  ETRS Iterations
 RTBSE|            2078     0.46378111E-007     0.10000000E+002                7
 RTBSE| Simulation step         Convergence     Electron number  ETRS Iterations
 RTBSE|            2079     0.44093961E-007     0.10000000E+002                7
 RTBSE| Simulation step         Convergence     Electron number  ETRS Iterations
 RTBSE|            2080     0.41558968E-007     0.10000000E+002                7
 RTBSE| Simulation step         Convergence     Electron number  ETRS Iterations
 RTBSE|            2081     0.39054076E-007     0.10000000E+002                7
 RTBSE| Simulation step         Convergence     Electron number  ETRS Iterations
 RTBSE|            2082     0.36720845E-007     0.10000000E+002                7
 RTBSE| Simulation step         Convergence     Electron number  ETRS Iterations
 RTBSE|            2083     0.34598115E-007     0.10000000E+002                7
 RTBSE| Simulation step         Convergence     Electron number  ETRS Iterations
 RTBSE|            2084     0.32586932E-007     0.10000000E+002                7
 RTBSE| Simulation step         Convergence     Electron number  ETRS Iterations
 RTBSE|            2085     0.30523065E-007     0.10000000E+002                7
 RTBSE| Simulation step         Convergence     Electron number  ETRS Iterations
 RTBSE|            2086     0.28182039E-007     0.10000000E+002                7
 RTBSE| Simulation step         Convergence     Electron number  ETRS Iterations
 RTBSE|            2087     0.25379884E-007     0.10000000E+002                7
 RTBSE| Simulation step         Convergence     Electron number  ETRS Iterations
 RTBSE|            2088     0.22043792E-007     0.10000000E+002                7
 RTBSE| Simulation step         Convergence     Electron number  ETRS Iterations
 RTBSE|            2089     0.18464146E-007     0.10000000E+002                7
 RTBSE| Simulation step         Convergence     Electron number  ETRS Iterations
 RTBSE|            2090     0.16038843E-007     0.10000000E+002                7
 RTBSE| Simulation step         Convergence     Electron number  ETRS Iterations
 RTBSE|            2091     0.97499321E-007     0.10000000E+002                6
 RTBSE| Simulation step         Convergence     Electron number  ETRS Iterations
 RTBSE|            2092     0.74004466E-007     0.10000000E+002                6
 RTBSE| Simulation step         Convergence     Electron number  ETRS Iterations
 RTBSE|            2093     0.48564176E-007     0.10000000E+002                6
 RTBSE| Simulation step         Convergence     Electron number  ETRS Iterations
 RTBSE|            2094     0.36597379E-007     0.10000000E+002                6
 RTBSE| Simulation step         Convergence     Electron number  ETRS Iterations
 RTBSE|            2095     0.55059594E-007     0.10000000E+002                6
 RTBSE| Simulation step         Convergence     Electron number  ETRS Iterations
 RTBSE|            2096     0.72213218E-007     0.10000000E+002                6
 RTBSE| Simulation step         Convergence     Electron number  ETRS Iterations
 RTBSE|            2097     0.85637128E-007     0.10000000E+002                6
 RTBSE| Simulation step         Convergence     Electron number  ETRS Iterations
 RTBSE|            2098     0.94586140E-007     0.10000000E+002                6
 RTBSE| Simulation step         Convergence     Electron number  ETRS Iterations
 RTBSE|            2099     0.99161782E-007     0.10000000E+002                6
 RTBSE| Simulation step         Convergence     Electron number  ETRS Iterations
 RTBSE|            2100     0.99970085E-007     0.10000000E+002                6
 RTBSE| Simulation step         Convergence     Electron number  ETRS Iterations
 RTBSE|            2101     0.97977615E-007     0.10000000E+002                6
 RTBSE| Simulation step         Convergence     Electron number  ETRS Iterations
 RTBSE|            2102     0.94512604E-007     0.10000000E+002                6
 RTBSE| Simulation step         Convergence     Electron number  ETRS Iterations
 RTBSE|            2103     0.90869760E-007     0.10000000E+002                6
 RTBSE| Simulation step         Convergence     Electron number  ETRS Iterations
 RTBSE|            2104     0.88389313E-007     0.10000000E+002                6
 RTBSE| Simulation step         Convergence     Electron number  ETRS Iterations
 RTBSE|            2105     0.87939001E-007     0.10000000E+002                6
 RTBSE| Simulation step         Convergence     Electron number  ETRS Iterations
 RTBSE|            2106     0.89936964E-007     0.10000000E+002                6
 RTBSE| Simulation step         Convergence     Electron number  ETRS Iterations
 RTBSE|            2107     0.94279144E-007     0.10000000E+002                6
 RTBSE| Simulation step         Convergence     Electron number  ETRS Iterations
 RTBSE|            2108     0.17461001E-007     0.10000000E+002                7
 RTBSE| Simulation step         Convergence     Electron number  ETRS Iterations
 RTBSE|            2109     0.18909008E-007     0.10000000E+002                7
 RTBSE| Simulation step         Convergence     Electron number  ETRS Iterations
 RTBSE|            2110     0.20387036E-007     0.10000000E+002                7
 RTBSE| Simulation step         Convergence     Electron number  ETRS Iterations
 RTBSE|            2111     0.21703262E-007     0.10000000E+002                7
 RTBSE| Simulation step         Convergence     Electron number  ETRS Iterations
 RTBSE|            2112     0.22616851E-007     0.10000000E+002                7
 RTBSE| Simulation step         Convergence     Electron number  ETRS Iterations
 RTBSE|            2113     0.23003866E-007     0.10000000E+002                7
 RTBSE| Simulation step         Convergence     Electron number  ETRS Iterations
 RTBSE|            2114     0.22484522E-007     0.10000000E+002                7
 RTBSE| Simulation step         Convergence     Electron number  ETRS Iterations
 RTBSE|            2115     0.20776675E-007     0.10000000E+002                7
 RTBSE| Simulation step         Convergence     Electron number  ETRS Iterations
 RTBSE|            2116     0.18762762E-007     0.10000000E+002                7
 RTBSE| Simulation step         Convergence     Electron number  ETRS Iterations
 RTBSE|            2117     0.16914350E-007     0.10000000E+002                7
 RTBSE| Simulation step         Convergence     Electron number  ETRS Iterations
 RTBSE|            2118     0.14098199E-007     0.10000000E+002                7
 RTBSE| Simulation step         Convergence     Electron number  ETRS Iterations
 RTBSE|            2119     0.77832189E-007     0.10000000E+002                6
 RTBSE| Simulation step         Convergence     Electron number  ETRS Iterations
 RTBSE|            2120     0.63734591E-007     0.10000000E+002                6
 RTBSE| Simulation step         Convergence     Electron number  ETRS Iterations
 RTBSE|            2121     0.99327833E-007     0.10000000E+002                6
 RTBSE| Simulation step         Convergence     Electron number  ETRS Iterations
 RTBSE|            2122     0.24287215E-007     0.10000000E+002                7
 RTBSE| Simulation step         Convergence     Electron number  ETRS Iterations
 RTBSE|            2123     0.31768144E-007     0.10000000E+002                7
 RTBSE| Simulation step         Convergence     Electron number  ETRS Iterations
 RTBSE|            2124     0.37979769E-007     0.10000000E+002                7
 RTBSE| Simulation step         Convergence     Electron number  ETRS Iterations
 RTBSE|            2125     0.42548801E-007     0.10000000E+002                7
 RTBSE| Simulation step         Convergence     Electron number  ETRS Iterations
 RTBSE|            2126     0.45337510E-007     0.10000000E+002                7
 RTBSE| Simulation step         Convergence     Electron number  ETRS Iterations
 RTBSE|            2127     0.46402959E-007     0.10000000E+002                7
 RTBSE| Simulation step         Convergence     Electron number  ETRS Iterations
 RTBSE|            2128     0.46010424E-007     0.10000000E+002                7
 RTBSE| Simulation step         Convergence     Electron number  ETRS Iterations
 RTBSE|            2129     0.44568365E-007     0.10000000E+002                7
 RTBSE| Simulation step         Convergence     Electron number  ETRS Iterations
 RTBSE|            2130     0.42476265E-007     0.10000000E+002                7
 RTBSE| Simulation step         Convergence     Electron number  ETRS Iterations
 RTBSE|            2131     0.40093157E-007     0.10000000E+002                7
 RTBSE| Simulation step         Convergence     Electron number  ETRS Iterations
 RTBSE|            2132     0.37693697E-007     0.10000000E+002                7
 RTBSE| Simulation step         Convergence     Electron number  ETRS Iterations
 RTBSE|            2133     0.35436492E-007     0.10000000E+002                7
 RTBSE| Simulation step         Convergence     Electron number  ETRS Iterations
 RTBSE|            2134     0.33368218E-007     0.10000000E+002                7
 RTBSE| Simulation step         Convergence     Electron number  ETRS Iterations
 RTBSE|            2135     0.31449405E-007     0.10000000E+002                7
 RTBSE| Simulation step         Convergence     Electron number  ETRS Iterations
 RTBSE|            2136     0.29570071E-007     0.10000000E+002                7
 RTBSE| Simulation step         Convergence     Electron number  ETRS Iterations
 RTBSE|            2137     0.27596091E-007     0.10000000E+002                7
 RTBSE| Simulation step         Convergence     Electron number  ETRS Iterations
 RTBSE|            2138     0.25378696E-007     0.10000000E+002                7
 RTBSE| Simulation step         Convergence     Electron number  ETRS Iterations
 RTBSE|            2139     0.22823740E-007     0.10000000E+002                7
 RTBSE| Simulation step         Convergence     Electron number  ETRS Iterations
 RTBSE|            2140     0.19875531E-007     0.10000000E+002                7
 RTBSE| Simulation step         Convergence     Electron number  ETRS Iterations
 RTBSE|            2141     0.17114383E-007     0.10000000E+002                7
 RTBSE| Simulation step         Convergence     Electron number  ETRS Iterations
 RTBSE|            2142     0.14763010E-007     0.10000000E+002                7
 RTBSE| Simulation step         Convergence     Electron number  ETRS Iterations
 RTBSE|            2143     0.91518278E-007     0.10000000E+002                6
 RTBSE| Simulation step         Convergence     Electron number  ETRS Iterations
 RTBSE|            2144     0.72091845E-007     0.10000000E+002                6
 RTBSE| Simulation step         Convergence     Electron number  ETRS Iterations
 RTBSE|            2145     0.50698781E-007     0.10000000E+002                6
 RTBSE| Simulation step         Convergence     Electron number  ETRS Iterations
 RTBSE|            2146     0.29754206E-007     0.10000000E+002                6
 RTBSE| Simulation step         Convergence     Electron number  ETRS Iterations
 RTBSE|            2147     0.45799449E-007     0.10000000E+002                6
 RTBSE| Simulation step         Convergence     Electron number  ETRS Iterations
 RTBSE|            2148     0.62175488E-007     0.10000000E+002                6
 RTBSE| Simulation step         Convergence     Electron number  ETRS Iterations
 RTBSE|            2149     0.75878212E-007     0.10000000E+002                6
 RTBSE| Simulation step         Convergence     Electron number  ETRS Iterations
 RTBSE|            2150     0.85987394E-007     0.10000000E+002                6
 RTBSE| Simulation step         Convergence     Electron number  ETRS Iterations
 RTBSE|            2151     0.92380943E-007     0.10000000E+002                6
 RTBSE| Simulation step         Convergence     Electron number  ETRS Iterations
 RTBSE|            2152     0.95397015E-007     0.10000000E+002                6
 RTBSE| Simulation step         Convergence     Electron number  ETRS Iterations
 RTBSE|            2153     0.95939402E-007     0.10000000E+002                6
 RTBSE| Simulation step         Convergence     Electron number  ETRS Iterations
 RTBSE|            2154     0.94983645E-007     0.10000000E+002                6
 RTBSE| Simulation step         Convergence     Electron number  ETRS Iterations
 RTBSE|            2155     0.93728529E-007     0.10000000E+002                6
 RTBSE| Simulation step         Convergence     Electron number  ETRS Iterations
 RTBSE|            2156     0.93144998E-007     0.10000000E+002                6
 RTBSE| Simulation step         Convergence     Electron number  ETRS Iterations
 RTBSE|            2157     0.93995200E-007     0.10000000E+002                6
 RTBSE| Simulation step         Convergence     Electron number  ETRS Iterations
 RTBSE|            2158     0.96592979E-007     0.10000000E+002                6
 RTBSE| Simulation step         Convergence     Electron number  ETRS Iterations
 RTBSE|            2159     0.17490391E-007     0.10000000E+002                7
 RTBSE| Simulation step         Convergence     Electron number  ETRS Iterations
 RTBSE|            2160     0.18639757E-007     0.10000000E+002                7
 RTBSE| Simulation step         Convergence     Electron number  ETRS Iterations
 RTBSE|            2161     0.19914186E-007     0.10000000E+002                7
 RTBSE| Simulation step         Convergence     Electron number  ETRS Iterations
 RTBSE|            2162     0.21153335E-007     0.10000000E+002                7
 RTBSE| Simulation step         Convergence     Electron number  ETRS Iterations
 RTBSE|            2163     0.22163044E-007     0.10000000E+002                7
 RTBSE| Simulation step         Convergence     Electron number  ETRS Iterations
 RTBSE|            2164     0.22712919E-007     0.10000000E+002                7
 RTBSE| Simulation step         Convergence     Electron number  ETRS Iterations
 RTBSE|            2165     0.22561649E-007     0.10000000E+002                7
 RTBSE| Simulation step         Convergence     Electron number  ETRS Iterations
 RTBSE|            2166     0.21441404E-007     0.10000000E+002                7
 RTBSE| Simulation step         Convergence     Electron number  ETRS Iterations
 RTBSE|            2167     0.19211133E-007     0.10000000E+002                7
 RTBSE| Simulation step         Convergence     Electron number  ETRS Iterations
 RTBSE|            2168     0.17735409E-007     0.10000000E+002                7
 RTBSE| Simulation step         Convergence     Electron number  ETRS Iterations
 RTBSE|            2169     0.15290602E-007     0.10000000E+002                7
 RTBSE| Simulation step         Convergence     Electron number  ETRS Iterations
 RTBSE|            2170     0.89653900E-007     0.10000000E+002                6
 RTBSE| Simulation step         Convergence     Electron number  ETRS Iterations
 RTBSE|            2171     0.54489845E-007     0.10000000E+002                6
 RTBSE| Simulation step         Convergence     Electron number  ETRS Iterations
 RTBSE|            2172     0.79324248E-007     0.10000000E+002                6
 RTBSE| Simulation step         Convergence     Electron number  ETRS Iterations
 RTBSE|            2173     0.19943652E-007     0.10000000E+002                7
 RTBSE| Simulation step         Convergence     Electron number  ETRS Iterations
 RTBSE|            2174     0.27369360E-007     0.10000000E+002                7
 RTBSE| Simulation step         Convergence     Electron number  ETRS Iterations
 RTBSE|            2175     0.33746534E-007     0.10000000E+002                7
 RTBSE| Simulation step         Convergence     Electron number  ETRS Iterations
 RTBSE|            2176     0.38638207E-007     0.10000000E+002                7
 RTBSE| Simulation step         Convergence     Electron number  ETRS Iterations
 RTBSE|            2177     0.41863296E-007     0.10000000E+002                7
 RTBSE| Simulation step         Convergence     Electron number  ETRS Iterations
 RTBSE|            2178     0.43401766E-007     0.10000000E+002                7
 RTBSE| Simulation step         Convergence     Electron number  ETRS Iterations
 RTBSE|            2179     0.43467003E-007     0.10000000E+002                7
 RTBSE| Simulation step         Convergence     Electron number  ETRS Iterations
 RTBSE|            2180     0.42365342E-007     0.10000000E+002                7
 RTBSE| Simulation step         Convergence     Electron number  ETRS Iterations
 RTBSE|            2181     0.40449504E-007     0.10000000E+002                7
 RTBSE| Simulation step         Convergence     Electron number  ETRS Iterations
 RTBSE|            2182     0.38074642E-007     0.10000000E+002                7
 RTBSE| Simulation step         Convergence     Electron number  ETRS Iterations
 RTBSE|            2183     0.35548639E-007     0.10000000E+002                7
 RTBSE| Simulation step         Convergence     Electron number  ETRS Iterations
 RTBSE|            2184     0.33105906E-007     0.10000000E+002                7
 RTBSE| Simulation step         Convergence     Electron number  ETRS Iterations
 RTBSE|            2185     0.30937764E-007     0.10000000E+002                7
 RTBSE| Simulation step         Convergence     Electron number  ETRS Iterations
 RTBSE|            2186     0.29135745E-007     0.10000000E+002                7
 RTBSE| Simulation step         Convergence     Electron number  ETRS Iterations
 RTBSE|            2187     0.27714449E-007     0.10000000E+002                7
 RTBSE| Simulation step         Convergence     Electron number  ETRS Iterations
 RTBSE|            2188     0.26578429E-007     0.10000000E+002                7
 RTBSE| Simulation step         Convergence     Electron number  ETRS Iterations
 RTBSE|            2189     0.25551543E-007     0.10000000E+002                7
 RTBSE| Simulation step         Convergence     Electron number  ETRS Iterations
 RTBSE|            2190     0.24406223E-007     0.10000000E+002                7
 RTBSE| Simulation step         Convergence     Electron number  ETRS Iterations
 RTBSE|            2191     0.22933580E-007     0.10000000E+002                7
 RTBSE| Simulation step         Convergence     Electron number  ETRS Iterations
 RTBSE|            2192     0.21111451E-007     0.10000000E+002                7
 RTBSE| Simulation step         Convergence     Electron number  ETRS Iterations
 RTBSE|            2193     0.19137640E-007     0.10000000E+002                7
 RTBSE| Simulation step         Convergence     Electron number  ETRS Iterations
 RTBSE|            2194     0.16287702E-007     0.10000000E+002                7
 RTBSE| Simulation step         Convergence     Electron number  ETRS Iterations
 RTBSE|            2195     0.14335546E-007     0.10000000E+002                7
 RTBSE| Simulation step         Convergence     Electron number  ETRS Iterations
 RTBSE|            2196     0.85373950E-007     0.10000000E+002                6
 RTBSE| Simulation step         Convergence     Electron number  ETRS Iterations
 RTBSE|            2197     0.62329621E-007     0.10000000E+002                6
 RTBSE| Simulation step         Convergence     Electron number  ETRS Iterations
 RTBSE|            2198     0.37072837E-007     0.10000000E+002                6
 RTBSE| Simulation step         Convergence     Electron number  ETRS Iterations
 RTBSE|            2199     0.46038540E-007     0.10000000E+002                6
 RTBSE| Simulation step         Convergence     Electron number  ETRS Iterations
 RTBSE|            2200     0.65142631E-007     0.10000000E+002                6
 RTBSE| Simulation step         Convergence     Electron number  ETRS Iterations
 RTBSE|            2201     0.81271971E-007     0.10000000E+002                6
 RTBSE| Simulation step         Convergence     Electron number  ETRS Iterations
 RTBSE|            2202     0.93024412E-007     0.10000000E+002                6
 RTBSE| Simulation step         Convergence     Electron number  ETRS Iterations
 RTBSE|            2203     0.15685302E-007     0.10000000E+002                7
 RTBSE| Simulation step         Convergence     Electron number  ETRS Iterations
 RTBSE|            2204     0.16542087E-007     0.10000000E+002                7
 RTBSE| Simulation step         Convergence     Electron number  ETRS Iterations
 RTBSE|            2205     0.16810982E-007     0.10000000E+002                7
 RTBSE| Simulation step         Convergence     Electron number  ETRS Iterations
 RTBSE|            2206     0.16717158E-007     0.10000000E+002                7
 RTBSE| Simulation step         Convergence     Electron number  ETRS Iterations
 RTBSE|            2207     0.97871127E-007     0.10000000E+002                6
 RTBSE| Simulation step         Convergence     Electron number  ETRS Iterations
 RTBSE|            2208     0.95703459E-007     0.10000000E+002                6
 RTBSE| Simulation step         Convergence     Electron number  ETRS Iterations
 RTBSE|            2209     0.95059190E-007     0.10000000E+002                6
 RTBSE| Simulation step         Convergence     Electron number  ETRS Iterations
 RTBSE|            2210     0.96319697E-007     0.10000000E+002                6
 RTBSE| Simulation step         Convergence     Electron number  ETRS Iterations
 RTBSE|            2211     0.99456393E-007     0.10000000E+002                6
 RTBSE| Simulation step         Convergence     Electron number  ETRS Iterations
 RTBSE|            2212     0.18381483E-007     0.10000000E+002                7
 RTBSE| Simulation step         Convergence     Electron number  ETRS Iterations
 RTBSE|            2213     0.19478308E-007     0.10000000E+002                7
 RTBSE| Simulation step         Convergence     Electron number  ETRS Iterations
 RTBSE|            2214     0.20526317E-007     0.10000000E+002                7
 RTBSE| Simulation step         Convergence     Electron number  ETRS Iterations
 RTBSE|            2215     0.21295163E-007     0.10000000E+002                7
 RTBSE| Simulation step         Convergence     Electron number  ETRS Iterations
 RTBSE|            2216     0.21528594E-007     0.10000000E+002                7
 RTBSE| Simulation step         Convergence     Electron number  ETRS Iterations
 RTBSE|            2217     0.20955512E-007     0.10000000E+002                7
 RTBSE| Simulation step         Convergence     Electron number  ETRS Iterations
 RTBSE|            2218     0.19362880E-007     0.10000000E+002                7
 RTBSE| Simulation step         Convergence     Electron number  ETRS Iterations
 RTBSE|            2219     0.17673587E-007     0.10000000E+002                7
 RTBSE| Simulation step         Convergence     Electron number  ETRS Iterations
 RTBSE|            2220     0.15814803E-007     0.10000000E+002                7
 RTBSE| Simulation step         Convergence     Electron number  ETRS Iterations
 RTBSE|            2221     0.98579310E-007     0.10000000E+002                6
 RTBSE| Simulation step         Convergence     Electron number  ETRS Iterations
 RTBSE|            2222     0.69071099E-007     0.10000000E+002                6
 RTBSE| Simulation step         Convergence     Electron number  ETRS Iterations
 RTBSE|            2223     0.59187620E-007     0.10000000E+002                6
 RTBSE| Simulation step         Convergence     Electron number  ETRS Iterations
 RTBSE|            2224     0.88955820E-007     0.10000000E+002                6
 RTBSE| Simulation step         Convergence     Electron number  ETRS Iterations
 RTBSE|            2225     0.21965466E-007     0.10000000E+002                7
 RTBSE| Simulation step         Convergence     Electron number  ETRS Iterations
 RTBSE|            2226     0.28480758E-007     0.10000000E+002                7
 RTBSE| Simulation step         Convergence     Electron number  ETRS Iterations
 RTBSE|            2227     0.33783163E-007     0.10000000E+002                7
 RTBSE| Simulation step         Convergence     Electron number  ETRS Iterations
 RTBSE|            2228     0.37556736E-007     0.10000000E+002                7
 RTBSE| Simulation step         Convergence     Electron number  ETRS Iterations
 RTBSE|            2229     0.39634395E-007     0.10000000E+002                7
 RTBSE| Simulation step         Convergence     Electron number  ETRS Iterations
 RTBSE|            2230     0.40112415E-007     0.10000000E+002                7
 RTBSE| Simulation step         Convergence     Electron number  ETRS Iterations
 RTBSE|            2231     0.39224981E-007     0.10000000E+002                7
 RTBSE| Simulation step         Convergence     Electron number  ETRS Iterations
 RTBSE|            2232     0.37361611E-007     0.10000000E+002                7
 RTBSE| Simulation step         Convergence     Electron number  ETRS Iterations
 RTBSE|            2233     0.34935818E-007     0.10000000E+002                7
 RTBSE| Simulation step         Convergence     Electron number  ETRS Iterations
 RTBSE|            2234     0.32350434E-007     0.10000000E+002                7
 RTBSE| Simulation step         Convergence     Electron number  ETRS Iterations
 RTBSE|            2235     0.29986069E-007     0.10000000E+002                7
 RTBSE| Simulation step         Convergence     Electron number  ETRS Iterations
 RTBSE|            2236     0.28153300E-007     0.10000000E+002                7
 RTBSE| Simulation step         Convergence     Electron number  ETRS Iterations
 RTBSE|            2237     0.27026968E-007     0.10000000E+002                7
 RTBSE| Simulation step         Convergence     Electron number  ETRS Iterations
 RTBSE|            2238     0.26639874E-007     0.10000000E+002                7
 RTBSE| Simulation step         Convergence     Electron number  ETRS Iterations
 RTBSE|            2239     0.26840310E-007     0.10000000E+002                7
 RTBSE| Simulation step         Convergence     Electron number  ETRS Iterations
 RTBSE|            2240     0.27321454E-007     0.10000000E+002                7
 RTBSE| Simulation step         Convergence     Electron number  ETRS Iterations
 RTBSE|            2241     0.27687294E-007     0.10000000E+002                7
 RTBSE| Simulation step         Convergence     Electron number  ETRS Iterations
 RTBSE|            2242     0.27504592E-007     0.10000000E+002                7
 RTBSE| Simulation step         Convergence     Electron number  ETRS Iterations
 RTBSE|            2243     0.26432742E-007     0.10000000E+002                7
 RTBSE| Simulation step         Convergence     Electron number  ETRS Iterations
 RTBSE|            2244     0.24832861E-007     0.10000000E+002                7
 RTBSE| Simulation step         Convergence     Electron number  ETRS Iterations
 RTBSE|            2245     0.22273459E-007     0.10000000E+002                7
 RTBSE| Simulation step         Convergence     Electron number  ETRS Iterations
 RTBSE|            2246     0.18575684E-007     0.10000000E+002                7
 RTBSE| Simulation step         Convergence     Electron number  ETRS Iterations
 RTBSE|            2247     0.15943603E-007     0.10000000E+002                7
 RTBSE| Simulation step         Convergence     Electron number  ETRS Iterations
 RTBSE|            2248     0.90478967E-007     0.10000000E+002                6
 RTBSE| Simulation step         Convergence     Electron number  ETRS Iterations
 RTBSE|            2249     0.61115791E-007     0.10000000E+002                6
 RTBSE| Simulation step         Convergence     Electron number  ETRS Iterations
 RTBSE|            2250     0.36769302E-007     0.10000000E+002                6
 RTBSE| Simulation step         Convergence     Electron number  ETRS Iterations
 RTBSE|            2251     0.58232913E-007     0.10000000E+002                6
 RTBSE| Simulation step         Convergence     Electron number  ETRS Iterations
 RTBSE|            2252     0.78432735E-007     0.10000000E+002                6
 RTBSE| Simulation step         Convergence     Electron number  ETRS Iterations
 RTBSE|            2253     0.93789679E-007     0.10000000E+002                6
 RTBSE| Simulation step         Convergence     Electron number  ETRS Iterations
 RTBSE|            2254     0.16122037E-007     0.10000000E+002                7
 RTBSE| Simulation step         Convergence     Electron number  ETRS Iterations
 RTBSE|            2255     0.17206396E-007     0.10000000E+002                7
 RTBSE| Simulation step         Convergence     Electron number  ETRS Iterations
 RTBSE|            2256     0.17489815E-007     0.10000000E+002                7
 RTBSE| Simulation step         Convergence     Electron number  ETRS Iterations
 RTBSE|            2257     0.17163552E-007     0.10000000E+002                7
 RTBSE| Simulation step         Convergence     Electron number  ETRS Iterations
 RTBSE|            2258     0.97929930E-007     0.10000000E+002                6
 RTBSE| Simulation step         Convergence     Electron number  ETRS Iterations
 RTBSE|            2259     0.92711414E-007     0.10000000E+002                6
 RTBSE| Simulation step         Convergence     Electron number  ETRS Iterations
 RTBSE|            2260     0.88878876E-007     0.10000000E+002                6
 RTBSE| Simulation step         Convergence     Electron number  ETRS Iterations
 RTBSE|            2261     0.87269197E-007     0.10000000E+002                6
 RTBSE| Simulation step         Convergence     Electron number  ETRS Iterations
 RTBSE|            2262     0.88174698E-007     0.10000000E+002                6
 RTBSE| Simulation step         Convergence     Electron number  ETRS Iterations
 RTBSE|            2263     0.91452486E-007     0.10000000E+002                6
 RTBSE| Simulation step         Convergence     Electron number  ETRS Iterations
 RTBSE|            2264     0.98020016E-007     0.10000000E+002                6
 RTBSE| Simulation step         Convergence     Electron number  ETRS Iterations
 RTBSE|            2265     0.18286019E-007     0.10000000E+002                7
 RTBSE| Simulation step         Convergence     Electron number  ETRS Iterations
 RTBSE|            2266     0.19408341E-007     0.10000000E+002                7
 RTBSE| Simulation step         Convergence     Electron number  ETRS Iterations
 RTBSE|            2267     0.20241348E-007     0.10000000E+002                7
 RTBSE| Simulation step         Convergence     Electron number  ETRS Iterations
 RTBSE|            2268     0.20500300E-007     0.10000000E+002                7
 RTBSE| Simulation step         Convergence     Electron number  ETRS Iterations
 RTBSE|            2269     0.19904036E-007     0.10000000E+002                7
 RTBSE| Simulation step         Convergence     Electron number  ETRS Iterations
 RTBSE|            2270     0.18226237E-007     0.10000000E+002                7
 RTBSE| Simulation step         Convergence     Electron number  ETRS Iterations
 RTBSE|            2271     0.16874819E-007     0.10000000E+002                7
 RTBSE| Simulation step         Convergence     Electron number  ETRS Iterations
 RTBSE|            2272     0.14873922E-007     0.10000000E+002                7
 RTBSE| Simulation step         Convergence     Electron number  ETRS Iterations
 RTBSE|            2273     0.88198823E-007     0.10000000E+002                6
 RTBSE| Simulation step         Convergence     Electron number  ETRS Iterations
 RTBSE|            2274     0.57640448E-007     0.10000000E+002                6
 RTBSE| Simulation step         Convergence     Electron number  ETRS Iterations
 RTBSE|            2275     0.66488907E-007     0.10000000E+002                6
 RTBSE| Simulation step         Convergence     Electron number  ETRS Iterations
 RTBSE|            2276     0.96191492E-007     0.10000000E+002                6
 RTBSE| Simulation step         Convergence     Electron number  ETRS Iterations
 RTBSE|            2277     0.23308963E-007     0.10000000E+002                7
 RTBSE| Simulation step         Convergence     Electron number  ETRS Iterations
 RTBSE|            2278     0.29022818E-007     0.10000000E+002                7
 RTBSE| Simulation step         Convergence     Electron number  ETRS Iterations
 RTBSE|            2279     0.33224287E-007     0.10000000E+002                7
 RTBSE| Simulation step         Convergence     Electron number  ETRS Iterations
 RTBSE|            2280     0.35721549E-007     0.10000000E+002                7
 RTBSE| Simulation step         Convergence     Electron number  ETRS Iterations
 RTBSE|            2281     0.36504890E-007     0.10000000E+002                7
 RTBSE| Simulation step         Convergence     Electron number  ETRS Iterations
 RTBSE|            2282     0.35869306E-007     0.10000000E+002                7
 RTBSE| Simulation step         Convergence     Electron number  ETRS Iterations
 RTBSE|            2283     0.34196580E-007     0.10000000E+002                7
 RTBSE| Simulation step         Convergence     Electron number  ETRS Iterations
 RTBSE|            2284     0.32016209E-007     0.10000000E+002                7
 RTBSE| Simulation step         Convergence     Electron number  ETRS Iterations
 RTBSE|            2285     0.29801958E-007     0.10000000E+002                7
 RTBSE| Simulation step         Convergence     Electron number  ETRS Iterations
 RTBSE|            2286     0.27965768E-007     0.10000000E+002                7
 RTBSE| Simulation step         Convergence     Electron number  ETRS Iterations
 RTBSE|            2287     0.26817113E-007     0.10000000E+002                7
 RTBSE| Simulation step         Convergence     Electron number  ETRS Iterations
 RTBSE|            2288     0.26496973E-007     0.10000000E+002                7
 RTBSE| Simulation step         Convergence     Electron number  ETRS Iterations
 RTBSE|            2289     0.27016694E-007     0.10000000E+002                7
 RTBSE| Simulation step         Convergence     Electron number  ETRS Iterations
 RTBSE|            2290     0.28153151E-007     0.10000000E+002                7
 RTBSE| Simulation step         Convergence     Electron number  ETRS Iterations
 RTBSE|            2291     0.29562511E-007     0.10000000E+002                7
 RTBSE| Simulation step         Convergence     Electron number  ETRS Iterations
 RTBSE|            2292     0.30760276E-007     0.10000000E+002                7
 RTBSE| Simulation step         Convergence     Electron number  ETRS Iterations
 RTBSE|            2293     0.31258260E-007     0.10000000E+002                7
 RTBSE| Simulation step         Convergence     Electron number  ETRS Iterations
 RTBSE|            2294     0.30657666E-007     0.10000000E+002                7
 RTBSE| Simulation step         Convergence     Electron number  ETRS Iterations
 RTBSE|            2295     0.28896749E-007     0.10000000E+002                7
 RTBSE| Simulation step         Convergence     Electron number  ETRS Iterations
 RTBSE|            2296     0.26593632E-007     0.10000000E+002                7
 RTBSE| Simulation step         Convergence     Electron number  ETRS Iterations
 RTBSE|            2297     0.22824523E-007     0.10000000E+002                7
 RTBSE| Simulation step         Convergence     Electron number  ETRS Iterations
 RTBSE|            2298     0.18907148E-007     0.10000000E+002                7
 RTBSE| Simulation step         Convergence     Electron number  ETRS Iterations
 RTBSE|            2299     0.15435660E-007     0.10000000E+002                7
 RTBSE| Simulation step         Convergence     Electron number  ETRS Iterations
 RTBSE|            2300     0.80718428E-007     0.10000000E+002                6
 RTBSE| Simulation step         Convergence     Electron number  ETRS Iterations
 RTBSE|            2301     0.47472510E-007     0.10000000E+002                6
 RTBSE| Simulation step         Convergence     Electron number  ETRS Iterations
 RTBSE|            2302     0.49132722E-007     0.10000000E+002                6
 RTBSE| Simulation step         Convergence     Electron number  ETRS Iterations
 RTBSE|            2303     0.71668258E-007     0.10000000E+002                6
 RTBSE| Simulation step         Convergence     Electron number  ETRS Iterations
 RTBSE|            2304     0.89740107E-007     0.10000000E+002                6
 RTBSE| Simulation step         Convergence     Electron number  ETRS Iterations
 RTBSE|            2305     0.15730599E-007     0.10000000E+002                7
 RTBSE| Simulation step         Convergence     Electron number  ETRS Iterations
 RTBSE|            2306     0.17064629E-007     0.10000000E+002                7
 RTBSE| Simulation step         Convergence     Electron number  ETRS Iterations
 RTBSE|            2307     0.17407354E-007     0.10000000E+002                7
 RTBSE| Simulation step         Convergence     Electron number  ETRS Iterations
 RTBSE|            2308     0.16954328E-007     0.10000000E+002                7
 RTBSE| Simulation step         Convergence     Electron number  ETRS Iterations
 RTBSE|            2309     0.94487917E-007     0.10000000E+002                6
 RTBSE| Simulation step         Convergence     Electron number  ETRS Iterations
 RTBSE|            2310     0.86689364E-007     0.10000000E+002                6
 RTBSE| Simulation step         Convergence     Electron number  ETRS Iterations
 RTBSE|            2311     0.80031804E-007     0.10000000E+002                6
 RTBSE| Simulation step         Convergence     Electron number  ETRS Iterations
 RTBSE|            2312     0.75884242E-007     0.10000000E+002                6
 RTBSE| Simulation step         Convergence     Electron number  ETRS Iterations
 RTBSE|            2313     0.75047147E-007     0.10000000E+002                6
 RTBSE| Simulation step         Convergence     Electron number  ETRS Iterations
 RTBSE|            2314     0.77646728E-007     0.10000000E+002                6
 RTBSE| Simulation step         Convergence     Electron number  ETRS Iterations
 RTBSE|            2315     0.83239392E-007     0.10000000E+002                6
 RTBSE| Simulation step         Convergence     Electron number  ETRS Iterations
 RTBSE|            2316     0.90917134E-007     0.10000000E+002                6
 RTBSE| Simulation step         Convergence     Electron number  ETRS Iterations
 RTBSE|            2317     0.17698685E-007     0.10000000E+002                7
 RTBSE| Simulation step         Convergence     Electron number  ETRS Iterations
 RTBSE|            2318     0.19214719E-007     0.10000000E+002                7
 RTBSE| Simulation step         Convergence     Electron number  ETRS Iterations
 RTBSE|            2319     0.20325985E-007     0.10000000E+002                7
 RTBSE| Simulation step         Convergence     Electron number  ETRS Iterations
 RTBSE|            2320     0.20697564E-007     0.10000000E+002                7
 RTBSE| Simulation step         Convergence     Electron number  ETRS Iterations
 RTBSE|            2321     0.20026450E-007     0.10000000E+002                7
 RTBSE| Simulation step         Convergence     Electron number  ETRS Iterations
 RTBSE|            2322     0.18051689E-007     0.10000000E+002                7
 RTBSE| Simulation step         Convergence     Electron number  ETRS Iterations
 RTBSE|            2323     0.16703972E-007     0.10000000E+002                7
 RTBSE| Simulation step         Convergence     Electron number  ETRS Iterations
 RTBSE|            2324     0.14240215E-007     0.10000000E+002                7
 RTBSE| Simulation step         Convergence     Electron number  ETRS Iterations
 RTBSE|            2325     0.78817679E-007     0.10000000E+002                6
 RTBSE| Simulation step         Convergence     Electron number  ETRS Iterations
 RTBSE|            2326     0.46335661E-007     0.10000000E+002                6
 RTBSE| Simulation step         Convergence     Electron number  ETRS Iterations
 RTBSE|            2327     0.72513664E-007     0.10000000E+002                6
 RTBSE| Simulation step         Convergence     Electron number  ETRS Iterations
 RTBSE|            2328     0.17677406E-007     0.10000000E+002                7
 RTBSE| Simulation step         Convergence     Electron number  ETRS Iterations
 RTBSE|            2329     0.23575402E-007     0.10000000E+002                7
 RTBSE| Simulation step         Convergence     Electron number  ETRS Iterations
 RTBSE|            2330     0.28181993E-007     0.10000000E+002                7
 RTBSE| Simulation step         Convergence     Electron number  ETRS Iterations
 RTBSE|            2331     0.31249012E-007     0.10000000E+002                7
 RTBSE| Simulation step         Convergence     Electron number  ETRS Iterations
 RTBSE|            2332     0.32745240E-007     0.10000000E+002                7
 RTBSE| Simulation step         Convergence     Electron number  ETRS Iterations
 RTBSE|            2333     0.32882406E-007     0.10000000E+002                7
 RTBSE| Simulation step         Convergence     Electron number  ETRS Iterations
 RTBSE|            2334     0.32011591E-007     0.10000000E+002                7
 RTBSE| Simulation step         Convergence     Electron number  ETRS Iterations
 RTBSE|            2335     0.30584268E-007     0.10000000E+002                7
 RTBSE| Simulation step         Convergence     Electron number  ETRS Iterations
 RTBSE|            2336     0.28993663E-007     0.10000000E+002                7
 RTBSE| Simulation step         Convergence     Electron number  ETRS Iterations
 RTBSE|            2337     0.27618754E-007     0.10000000E+002                7
 RTBSE| Simulation step         Convergence     Electron number  ETRS Iterations
 RTBSE|            2338     0.26745919E-007     0.10000000E+002                7
 RTBSE| Simulation step         Convergence     Electron number  ETRS Iterations
 RTBSE|            2339     0.26533263E-007     0.10000000E+002                7
 RTBSE| Simulation step         Convergence     Electron number  ETRS Iterations
 RTBSE|            2340     0.27071181E-007     0.10000000E+002                7
 RTBSE| Simulation step         Convergence     Electron number  ETRS Iterations
 RTBSE|            2341     0.28259700E-007     0.10000000E+002                7
 RTBSE| Simulation step         Convergence     Electron number  ETRS Iterations
 RTBSE|            2342     0.29830258E-007     0.10000000E+002                7
 RTBSE| Simulation step         Convergence     Electron number  ETRS Iterations
 RTBSE|            2343     0.31352644E-007     0.10000000E+002                7
 RTBSE| Simulation step         Convergence     Electron number  ETRS Iterations
 RTBSE|            2344     0.32376843E-007     0.10000000E+002                7
 RTBSE| Simulation step         Convergence     Electron number  ETRS Iterations
 RTBSE|            2345     0.32442837E-007     0.10000000E+002                7
 RTBSE| Simulation step         Convergence     Electron number  ETRS Iterations
 RTBSE|            2346     0.31284132E-007     0.10000000E+002                7
 RTBSE| Simulation step         Convergence     Electron number  ETRS Iterations
 RTBSE|            2347     0.29420517E-007     0.10000000E+002                7
 RTBSE| Simulation step         Convergence     Electron number  ETRS Iterations
 RTBSE|            2348     0.26301000E-007     0.10000000E+002                7
 RTBSE| Simulation step         Convergence     Electron number  ETRS Iterations
 RTBSE|            2349     0.21767134E-007     0.10000000E+002                7
 RTBSE| Simulation step         Convergence     Electron number  ETRS Iterations
 RTBSE|            2350     0.18006318E-007     0.10000000E+002                7
 RTBSE| Simulation step         Convergence     Electron number  ETRS Iterations
 RTBSE|            2351     0.14102761E-007     0.10000000E+002                7
 RTBSE| Simulation step         Convergence     Electron number  ETRS Iterations
 RTBSE|            2352     0.68220577E-007     0.10000000E+002                6
 RTBSE| Simulation step         Convergence     Electron number  ETRS Iterations
 RTBSE|            2353     0.35303472E-007     0.10000000E+002                6
 RTBSE| Simulation step         Convergence     Electron number  ETRS Iterations
 RTBSE|            2354     0.57195339E-007     0.10000000E+002                6
 RTBSE| Simulation step         Convergence     Electron number  ETRS Iterations
 RTBSE|            2355     0.77444773E-007     0.10000000E+002                6
 RTBSE| Simulation step         Convergence     Electron number  ETRS Iterations
 RTBSE|            2356     0.91708326E-007     0.10000000E+002                6
 RTBSE| Simulation step         Convergence     Electron number  ETRS Iterations
 RTBSE|            2357     0.99073861E-007     0.10000000E+002                6
 RTBSE| Simulation step         Convergence     Electron number  ETRS Iterations
 RTBSE|            2358     0.16298134E-007     0.10000000E+002                7
 RTBSE| Simulation step         Convergence     Electron number  ETRS Iterations
 RTBSE|            2359     0.95774146E-007     0.10000000E+002                6
 RTBSE| Simulation step         Convergence     Electron number  ETRS Iterations
 RTBSE|            2360     0.88253219E-007     0.10000000E+002                6
 RTBSE| Simulation step         Convergence     Electron number  ETRS Iterations
 RTBSE|            2361     0.79604397E-007     0.10000000E+002                6
 RTBSE| Simulation step         Convergence     Electron number  ETRS Iterations
 RTBSE|            2362     0.71866789E-007     0.10000000E+002                6
 RTBSE| Simulation step         Convergence     Electron number  ETRS Iterations
 RTBSE|            2363     0.66742827E-007     0.10000000E+002                6
 RTBSE| Simulation step         Convergence     Electron number  ETRS Iterations
 RTBSE|            2364     0.65264004E-007     0.10000000E+002                6
 RTBSE| Simulation step         Convergence     Electron number  ETRS Iterations
 RTBSE|            2365     0.67849466E-007     0.10000000E+002                6
 RTBSE| Simulation step         Convergence     Electron number  ETRS Iterations
 RTBSE|            2366     0.74275236E-007     0.10000000E+002                6
 RTBSE| Simulation step         Convergence     Electron number  ETRS Iterations
 RTBSE|            2367     0.83637571E-007     0.10000000E+002                6
 RTBSE| Simulation step         Convergence     Electron number  ETRS Iterations
 RTBSE|            2368     0.94582041E-007     0.10000000E+002                6
 RTBSE| Simulation step         Convergence     Electron number  ETRS Iterations
 RTBSE|            2369     0.18580218E-007     0.10000000E+002                7
 RTBSE| Simulation step         Convergence     Electron number  ETRS Iterations
 RTBSE|            2370     0.20328805E-007     0.10000000E+002                7
 RTBSE| Simulation step         Convergence     Electron number  ETRS Iterations
 RTBSE|            2371     0.21456921E-007     0.10000000E+002                7
 RTBSE| Simulation step         Convergence     Electron number  ETRS Iterations
 RTBSE|            2372     0.21639137E-007     0.10000000E+002                7
 RTBSE| Simulation step         Convergence     Electron number  ETRS Iterations
 RTBSE|            2373     0.20603630E-007     0.10000000E+002                7
 RTBSE| Simulation step         Convergence     Electron number  ETRS Iterations
 RTBSE|            2374     0.18419304E-007     0.10000000E+002                7
 RTBSE| Simulation step         Convergence     Electron number  ETRS Iterations
 RTBSE|            2375     0.16652766E-007     0.10000000E+002                7
 RTBSE| Simulation step         Convergence     Electron number  ETRS Iterations
 RTBSE|            2376     0.13854881E-007     0.10000000E+002                7
 RTBSE| Simulation step         Convergence     Electron number  ETRS Iterations
 RTBSE|            2377     0.74268811E-007     0.10000000E+002                6
 RTBSE| Simulation step         Convergence     Electron number  ETRS Iterations
 RTBSE|            2378     0.46754364E-007     0.10000000E+002                6
 RTBSE| Simulation step         Convergence     Electron number  ETRS Iterations
 RTBSE|            2379     0.72955379E-007     0.10000000E+002                6
 RTBSE| Simulation step         Convergence     Electron number  ETRS Iterations
 RTBSE|            2380     0.17767226E-007     0.10000000E+002                7
 RTBSE| Simulation step         Convergence     Electron number  ETRS Iterations
 RTBSE|            2381     0.23193367E-007     0.10000000E+002                7
 RTBSE| Simulation step         Convergence     Electron number  ETRS Iterations
 RTBSE|            2382     0.27364479E-007     0.10000000E+002                7
 RTBSE| Simulation step         Convergence     Electron number  ETRS Iterations
 RTBSE|            2383     0.30091802E-007     0.10000000E+002                7
 RTBSE| Simulation step         Convergence     Electron number  ETRS Iterations
 RTBSE|            2384     0.31375935E-007     0.10000000E+002                7
 RTBSE| Simulation step         Convergence     Electron number  ETRS Iterations
 RTBSE|            2385     0.31418098E-007     0.10000000E+002                7
 RTBSE| Simulation step         Convergence     Electron number  ETRS Iterations
 RTBSE|            2386     0.30542922E-007     0.10000000E+002                7
 RTBSE| Simulation step         Convergence     Electron number  ETRS Iterations
 RTBSE|            2387     0.29146277E-007     0.10000000E+002                7
 RTBSE| Simulation step         Convergence     Electron number  ETRS Iterations
 RTBSE|            2388     0.27644849E-007     0.10000000E+002                7
 RTBSE| Simulation step         Convergence     Electron number  ETRS Iterations
 RTBSE|            2389     0.26441919E-007     0.10000000E+002                7
 RTBSE| Simulation step         Convergence     Electron number  ETRS Iterations
 RTBSE|            2390     0.25823323E-007     0.10000000E+002                7
 RTBSE| Simulation step         Convergence     Electron number  ETRS Iterations
 RTBSE|            2391     0.26011330E-007     0.10000000E+002                7
 RTBSE| Simulation step         Convergence     Electron number  ETRS Iterations
 RTBSE|            2392     0.27048003E-007     0.10000000E+002                7
 RTBSE| Simulation step         Convergence     Electron number  ETRS Iterations
 RTBSE|            2393     0.28765683E-007     0.10000000E+002                7
 RTBSE| Simulation step         Convergence     Electron number  ETRS Iterations
 RTBSE|            2394     0.30809752E-007     0.10000000E+002                7
 RTBSE| Simulation step         Convergence     Electron number  ETRS Iterations
 RTBSE|            2395     0.32660114E-007     0.10000000E+002                7
 RTBSE| Simulation step         Convergence     Electron number  ETRS Iterations
 RTBSE|            2396     0.33770619E-007     0.10000000E+002                7
 RTBSE| Simulation step         Convergence     Electron number  ETRS Iterations
 RTBSE|            2397     0.33675238E-007     0.10000000E+002                7
 RTBSE| Simulation step         Convergence     Electron number  ETRS Iterations
 RTBSE|            2398     0.32128068E-007     0.10000000E+002                7
 RTBSE| Simulation step         Convergence     Electron number  ETRS Iterations
 RTBSE|            2399     0.29895183E-007     0.10000000E+002                7
 RTBSE| Simulation step         Convergence     Electron number  ETRS Iterations
 RTBSE|            2400     0.26001363E-007     0.10000000E+002                7
 RTBSE| Simulation step         Convergence     Electron number  ETRS Iterations
 RTBSE|            2401     0.20801389E-007     0.10000000E+002                7
 RTBSE| Simulation step         Convergence     Electron number  ETRS Iterations
 RTBSE|            2402     0.17143825E-007     0.10000000E+002                7
 RTBSE| Simulation step         Convergence     Electron number  ETRS Iterations
 RTBSE|            2403     0.92798946E-007     0.10000000E+002                6
 RTBSE| Simulation step         Convergence     Electron number  ETRS Iterations
 RTBSE|            2404     0.58358582E-007     0.10000000E+002                6
 RTBSE| Simulation step         Convergence     Electron number  ETRS Iterations
 RTBSE|            2405     0.39603341E-007     0.10000000E+002                6
 RTBSE| Simulation step         Convergence     Electron number  ETRS Iterations
 RTBSE|            2406     0.60610268E-007     0.10000000E+002                6
 RTBSE| Simulation step         Convergence     Electron number  ETRS Iterations
 RTBSE|            2407     0.77720392E-007     0.10000000E+002                6
 RTBSE| Simulation step         Convergence     Electron number  ETRS Iterations
 RTBSE|            2408     0.88342397E-007     0.10000000E+002                6
 RTBSE| Simulation step         Convergence     Electron number  ETRS Iterations
 RTBSE|            2409     0.92338491E-007     0.10000000E+002                6
 RTBSE| Simulation step         Convergence     Electron number  ETRS Iterations
 RTBSE|            2410     0.90688699E-007     0.10000000E+002                6
 RTBSE| Simulation step         Convergence     Electron number  ETRS Iterations
 RTBSE|            2411     0.85025870E-007     0.10000000E+002                6
 RTBSE| Simulation step         Convergence     Electron number  ETRS Iterations
 RTBSE|            2412     0.77306581E-007     0.10000000E+002                6
 RTBSE| Simulation step         Convergence     Electron number  ETRS Iterations
 RTBSE|            2413     0.69689235E-007     0.10000000E+002                6
 RTBSE| Simulation step         Convergence     Electron number  ETRS Iterations
 RTBSE|            2414     0.63987929E-007     0.10000000E+002                6
 RTBSE| Simulation step         Convergence     Electron number  ETRS Iterations
 RTBSE|            2415     0.61628049E-007     0.10000000E+002                6
 RTBSE| Simulation step         Convergence     Electron number  ETRS Iterations
 RTBSE|            2416     0.63360194E-007     0.10000000E+002                6
 RTBSE| Simulation step         Convergence     Electron number  ETRS Iterations
 RTBSE|            2417     0.69170273E-007     0.10000000E+002                6
 RTBSE| Simulation step         Convergence     Electron number  ETRS Iterations
 RTBSE|            2418     0.78513021E-007     0.10000000E+002                6
 RTBSE| Simulation step         Convergence     Electron number  ETRS Iterations
 RTBSE|            2419     0.90333510E-007     0.10000000E+002                6
 RTBSE| Simulation step         Convergence     Electron number  ETRS Iterations
 RTBSE|            2420     0.17852221E-007     0.10000000E+002                7
 RTBSE| Simulation step         Convergence     Electron number  ETRS Iterations
 RTBSE|            2421     0.20090954E-007     0.10000000E+002                7
 RTBSE| Simulation step         Convergence     Electron number  ETRS Iterations
 RTBSE|            2422     0.21926074E-007     0.10000000E+002                7
 RTBSE| Simulation step         Convergence     Electron number  ETRS Iterations
 RTBSE|            2423     0.23015691E-007     0.10000000E+002                7
 RTBSE| Simulation step         Convergence     Electron number  ETRS Iterations
 RTBSE|            2424     0.23027689E-007     0.10000000E+002                7
 RTBSE| Simulation step         Convergence     Electron number  ETRS Iterations
 RTBSE|            2425     0.21674884E-007     0.10000000E+002                7
 RTBSE| Simulation step         Convergence     Electron number  ETRS Iterations
 RTBSE|            2426     0.19247136E-007     0.10000000E+002                7
 RTBSE| Simulation step         Convergence     Electron number  ETRS Iterations
 RTBSE|            2427     0.17067618E-007     0.10000000E+002                7
 RTBSE| Simulation step         Convergence     Electron number  ETRS Iterations
 RTBSE|            2428     0.13795408E-007     0.10000000E+002                7
 RTBSE| Simulation step         Convergence     Electron number  ETRS Iterations
 RTBSE|            2429     0.70843682E-007     0.10000000E+002                6
 RTBSE| Simulation step         Convergence     Electron number  ETRS Iterations
 RTBSE|            2430     0.53160450E-007     0.10000000E+002                6
 RTBSE| Simulation step         Convergence     Electron number  ETRS Iterations
 RTBSE|            2431     0.82260273E-007     0.10000000E+002                6
 RTBSE| Simulation step         Convergence     Electron number  ETRS Iterations
 RTBSE|            2432     0.19830267E-007     0.10000000E+002                7
 RTBSE| Simulation step         Convergence     Electron number  ETRS Iterations
 RTBSE|            2433     0.24997060E-007     0.10000000E+002                7
 RTBSE| Simulation step         Convergence     Electron number  ETRS Iterations
 RTBSE|            2434     0.28615233E-007     0.10000000E+002                7
 RTBSE| Simulation step         Convergence     Electron number  ETRS Iterations
 RTBSE|            2435     0.30503112E-007     0.10000000E+002                7
 RTBSE| Simulation step         Convergence     Electron number  ETRS Iterations
 RTBSE|            2436     0.30811374E-007     0.10000000E+002                7
 RTBSE| Simulation step         Convergence     Electron number  ETRS Iterations
 RTBSE|            2437     0.29906079E-007     0.10000000E+002                7
 RTBSE| Simulation step         Convergence     Electron number  ETRS Iterations
 RTBSE|            2438     0.28252359E-007     0.10000000E+002                7
 RTBSE| Simulation step         Convergence     Electron number  ETRS Iterations
 RTBSE|            2439     0.26374445E-007     0.10000000E+002                7
 RTBSE| Simulation step         Convergence     Electron number  ETRS Iterations
 RTBSE|            2440     0.24784901E-007     0.10000000E+002                7
 RTBSE| Simulation step         Convergence     Electron number  ETRS Iterations
 RTBSE|            2441     0.23894519E-007     0.10000000E+002                7
 RTBSE| Simulation step         Convergence     Electron number  ETRS Iterations
 RTBSE|            2442     0.24007489E-007     0.10000000E+002                7
 RTBSE| Simulation step         Convergence     Electron number  ETRS Iterations
 RTBSE|            2443     0.25213833E-007     0.10000000E+002                7
 RTBSE| Simulation step         Convergence     Electron number  ETRS Iterations
 RTBSE|            2444     0.27389259E-007     0.10000000E+002                7
 RTBSE| Simulation step         Convergence     Electron number  ETRS Iterations
 RTBSE|            2445     0.30159625E-007     0.10000000E+002                7
 RTBSE| Simulation step         Convergence     Electron number  ETRS Iterations
 RTBSE|            2446     0.32973778E-007     0.10000000E+002                7
 RTBSE| Simulation step         Convergence     Electron number  ETRS Iterations
 RTBSE|            2447     0.35187225E-007     0.10000000E+002                7
 RTBSE| Simulation step         Convergence     Electron number  ETRS Iterations
 RTBSE|            2448     0.36246387E-007     0.10000000E+002                7
 RTBSE| Simulation step         Convergence     Electron number  ETRS Iterations
 RTBSE|            2449     0.35722757E-007     0.10000000E+002                7
 RTBSE| Simulation step         Convergence     Electron number  ETRS Iterations
 RTBSE|            2450     0.33556943E-007     0.10000000E+002                7
 RTBSE| Simulation step         Convergence     Electron number  ETRS Iterations
 RTBSE|            2451     0.30441929E-007     0.10000000E+002                7
 RTBSE| Simulation step         Convergence     Electron number  ETRS Iterations
 RTBSE|            2452     0.25725478E-007     0.10000000E+002                7
 RTBSE| Simulation step         Convergence     Electron number  ETRS Iterations
 RTBSE|            2453     0.20431129E-007     0.10000000E+002                7
 RTBSE| Simulation step         Convergence     Electron number  ETRS Iterations
 RTBSE|            2454     0.16400539E-007     0.10000000E+002                7
 RTBSE| Simulation step         Convergence     Electron number  ETRS Iterations
 RTBSE|            2455     0.85647512E-007     0.10000000E+002                6
 RTBSE| Simulation step         Convergence     Electron number  ETRS Iterations
 RTBSE|            2456     0.52015109E-007     0.10000000E+002                6
 RTBSE| Simulation step         Convergence     Electron number  ETRS Iterations
 RTBSE|            2457     0.44696392E-007     0.10000000E+002                6
 RTBSE| Simulation step         Convergence     Electron number  ETRS Iterations
 RTBSE|            2458     0.64459994E-007     0.10000000E+002                6
 RTBSE| Simulation step         Convergence     Electron number  ETRS Iterations
 RTBSE|            2459     0.79038319E-007     0.10000000E+002                6
 RTBSE| Simulation step         Convergence     Electron number  ETRS Iterations
 RTBSE|            2460     0.86873266E-007     0.10000000E+002                6
 RTBSE| Simulation step         Convergence     Electron number  ETRS Iterations
 RTBSE|            2461     0.88285261E-007     0.10000000E+002                6
 RTBSE| Simulation step         Convergence     Electron number  ETRS Iterations
 RTBSE|            2462     0.84591486E-007     0.10000000E+002                6
 RTBSE| Simulation step         Convergence     Electron number  ETRS Iterations
 RTBSE|            2463     0.77722233E-007     0.10000000E+002                6
 RTBSE| Simulation step         Convergence     Electron number  ETRS Iterations
 RTBSE|            2464     0.69903624E-007     0.10000000E+002                6
 RTBSE| Simulation step         Convergence     Electron number  ETRS Iterations
 RTBSE|            2465     0.63246636E-007     0.10000000E+002                6
 RTBSE| Simulation step         Convergence     Electron number  ETRS Iterations
 RTBSE|            2466     0.59515284E-007     0.10000000E+002                6
 RTBSE| Simulation step         Convergence     Electron number  ETRS Iterations
 RTBSE|            2467     0.59920721E-007     0.10000000E+002                6
 RTBSE| Simulation step         Convergence     Electron number  ETRS Iterations
 RTBSE|            2468     0.64990479E-007     0.10000000E+002                6
 RTBSE| Simulation step         Convergence     Electron number  ETRS Iterations
 RTBSE|            2469     0.74491555E-007     0.10000000E+002                6
 RTBSE| Simulation step         Convergence     Electron number  ETRS Iterations
 RTBSE|            2470     0.87516620E-007     0.10000000E+002                6
 RTBSE| Simulation step         Convergence     Electron number  ETRS Iterations
 RTBSE|            2471     0.17448074E-007     0.10000000E+002                7
 RTBSE| Simulation step         Convergence     Electron number  ETRS Iterations
 RTBSE|            2472     0.20172311E-007     0.10000000E+002                7
 RTBSE| Simulation step         Convergence     Electron number  ETRS Iterations
 RTBSE|            2473     0.22596411E-007     0.10000000E+002                7
 RTBSE| Simulation step         Convergence     Electron number  ETRS Iterations
 RTBSE|            2474     0.24369163E-007     0.10000000E+002                7
 RTBSE| Simulation step         Convergence     Electron number  ETRS Iterations
 RTBSE|            2475     0.25069556E-007     0.10000000E+002                7
 RTBSE| Simulation step         Convergence     Electron number  ETRS Iterations
 RTBSE|            2476     0.24349759E-007     0.10000000E+002                7
 RTBSE| Simulation step         Convergence     Electron number  ETRS Iterations
 RTBSE|            2477     0.21960109E-007     0.10000000E+002                7
 RTBSE| Simulation step         Convergence     Electron number  ETRS Iterations
 RTBSE|            2478     0.19222636E-007     0.10000000E+002                7
 RTBSE| Simulation step         Convergence     Electron number  ETRS Iterations
 RTBSE|            2479     0.16009747E-007     0.10000000E+002                7
 RTBSE| Simulation step         Convergence     Electron number  ETRS Iterations
 RTBSE|            2480     0.87108861E-007     0.10000000E+002                6
 RTBSE| Simulation step         Convergence     Electron number  ETRS Iterations
 RTBSE|            2481     0.51335210E-007     0.10000000E+002                6
 RTBSE| Simulation step         Convergence     Electron number  ETRS Iterations
 RTBSE|            2482     0.67569611E-007     0.10000000E+002                6
 RTBSE| Simulation step         Convergence     Electron number  ETRS Iterations
 RTBSE|            2483     0.97393841E-007     0.10000000E+002                6
 RTBSE| Simulation step         Convergence     Electron number  ETRS Iterations
 RTBSE|            2484     0.22142839E-007     0.10000000E+002                7
 RTBSE| Simulation step         Convergence     Electron number  ETRS Iterations
 RTBSE|            2485     0.25824556E-007     0.10000000E+002                7
 RTBSE| Simulation step         Convergence     Electron number  ETRS Iterations
 RTBSE|            2486     0.27734548E-007     0.10000000E+002                7
 RTBSE| Simulation step         Convergence     Electron number  ETRS Iterations
 RTBSE|            2487     0.28037260E-007     0.10000000E+002                7
 RTBSE| Simulation step         Convergence     Electron number  ETRS Iterations
 RTBSE|            2488     0.27100207E-007     0.10000000E+002                7
 RTBSE| Simulation step         Convergence     Electron number  ETRS Iterations
 RTBSE|            2489     0.25444257E-007     0.10000000E+002                7
 RTBSE| Simulation step         Convergence     Electron number  ETRS Iterations
 RTBSE|            2490     0.23637231E-007     0.10000000E+002                7
 RTBSE| Simulation step         Convergence     Electron number  ETRS Iterations
 RTBSE|            2491     0.22185090E-007     0.10000000E+002                7
 RTBSE| Simulation step         Convergence     Electron number  ETRS Iterations
 RTBSE|            2492     0.21524091E-007     0.10000000E+002                7
 RTBSE| Simulation step         Convergence     Electron number  ETRS Iterations
 RTBSE|            2493     0.21967336E-007     0.10000000E+002                7
 RTBSE| Simulation step         Convergence     Electron number  ETRS Iterations
 RTBSE|            2494     0.23629922E-007     0.10000000E+002                7
 RTBSE| Simulation step         Convergence     Electron number  ETRS Iterations
 RTBSE|            2495     0.26442303E-007     0.10000000E+002                7
 RTBSE| Simulation step         Convergence     Electron number  ETRS Iterations
 RTBSE|            2496     0.30068974E-007     0.10000000E+002                7
 RTBSE| Simulation step         Convergence     Electron number  ETRS Iterations
 RTBSE|            2497     0.33966497E-007     0.10000000E+002                7
 RTBSE| Simulation step         Convergence     Electron number  ETRS Iterations
 RTBSE|            2498     0.37399061E-007     0.10000000E+002                7
 RTBSE| Simulation step         Convergence     Electron number  ETRS Iterations
 RTBSE|            2499     0.39680615E-007     0.10000000E+002                7
 RTBSE| Simulation step         Convergence     Electron number  ETRS Iterations
 RTBSE|            2500     0.40267816E-007     0.10000000E+002                7
 RTBSE| Simulation step         Convergence     Electron number  ETRS Iterations
 RTBSE|            2501     0.38904413E-007     0.10000000E+002                7
 RTBSE| Simulation step         Convergence     Electron number  ETRS Iterations
 RTBSE|            2502     0.35676164E-007     0.10000000E+002                7
 RTBSE| Simulation step         Convergence     Electron number  ETRS Iterations
 RTBSE|            2503     0.31316718E-007     0.10000000E+002                7
 RTBSE| Simulation step         Convergence     Electron number  ETRS Iterations
 RTBSE|            2504     0.25423372E-007     0.10000000E+002                7
 RTBSE| Simulation step         Convergence     Electron number  ETRS Iterations
 RTBSE|            2505     0.20210210E-007     0.10000000E+002                7
 RTBSE| Simulation step         Convergence     Electron number  ETRS Iterations
 RTBSE|            2506     0.15544384E-007     0.10000000E+002                7
 RTBSE| Simulation step         Convergence     Electron number  ETRS Iterations
 RTBSE|            2507     0.76047467E-007     0.10000000E+002                6
 RTBSE| Simulation step         Convergence     Electron number  ETRS Iterations
 RTBSE|            2508     0.41323625E-007     0.10000000E+002                6
 RTBSE| Simulation step         Convergence     Electron number  ETRS Iterations
 RTBSE|            2509     0.55004168E-007     0.10000000E+002                6
 RTBSE| Simulation step         Convergence     Electron number  ETRS Iterations
 RTBSE|            2510     0.72615483E-007     0.10000000E+002                6
 RTBSE| Simulation step         Convergence     Electron number  ETRS Iterations
 RTBSE|            2511     0.83349311E-007     0.10000000E+002                6
 RTBSE| Simulation step         Convergence     Electron number  ETRS Iterations
 RTBSE|            2512     0.86892554E-007     0.10000000E+002                6
 RTBSE| Simulation step         Convergence     Electron number  ETRS Iterations
 RTBSE|            2513     0.84444386E-007     0.10000000E+002                6
 RTBSE| Simulation step         Convergence     Electron number  ETRS Iterations
 RTBSE|            2514     0.77969577E-007     0.10000000E+002                6
 RTBSE| Simulation step         Convergence     Electron number  ETRS Iterations
 RTBSE|            2515     0.69928068E-007     0.10000000E+002                6
 RTBSE| Simulation step         Convergence     Electron number  ETRS Iterations
 RTBSE|            2516     0.62729068E-007     0.10000000E+002                6
 RTBSE| Simulation step         Convergence     Electron number  ETRS Iterations
 RTBSE|            2517     0.58479010E-007     0.10000000E+002                6
 RTBSE| Simulation step         Convergence     Electron number  ETRS Iterations
 RTBSE|            2518     0.58604897E-007     0.10000000E+002                6
 RTBSE| Simulation step         Convergence     Electron number  ETRS Iterations
 RTBSE|            2519     0.63782462E-007     0.10000000E+002                6
 RTBSE| Simulation step         Convergence     Electron number  ETRS Iterations
 RTBSE|            2520     0.73685534E-007     0.10000000E+002                6
 RTBSE| Simulation step         Convergence     Electron number  ETRS Iterations
 RTBSE|            2521     0.87409324E-007     0.10000000E+002                6
 RTBSE| Simulation step         Convergence     Electron number  ETRS Iterations
 RTBSE|            2522     0.17404823E-007     0.10000000E+002                7
 RTBSE| Simulation step         Convergence     Electron number  ETRS Iterations
 RTBSE|            2523     0.20286381E-007     0.10000000E+002                7
 RTBSE| Simulation step         Convergence     Electron number  ETRS Iterations
 RTBSE|            2524     0.22895913E-007     0.10000000E+002                7
 RTBSE| Simulation step         Convergence     Electron number  ETRS Iterations
 RTBSE|            2525     0.24845252E-007     0.10000000E+002                7
 RTBSE| Simulation step         Convergence     Electron number  ETRS Iterations
 RTBSE|            2526     0.25758725E-007     0.10000000E+002                7
 RTBSE| Simulation step         Convergence     Electron number  ETRS Iterations
 RTBSE|            2527     0.25293457E-007     0.10000000E+002                7
 RTBSE| Simulation step         Convergence     Electron number  ETRS Iterations
 RTBSE|            2528     0.23237982E-007     0.10000000E+002                7
 RTBSE| Simulation step         Convergence     Electron number  ETRS Iterations
 RTBSE|            2529     0.19884820E-007     0.10000000E+002                7
 RTBSE| Simulation step         Convergence     Electron number  ETRS Iterations
 RTBSE|            2530     0.16947229E-007     0.10000000E+002                7
 RTBSE| Simulation step         Convergence     Electron number  ETRS Iterations
 RTBSE|            2531     0.96155235E-007     0.10000000E+002                6
 RTBSE| Simulation step         Convergence     Electron number  ETRS Iterations
 RTBSE|            2532     0.63580081E-007     0.10000000E+002                6
 RTBSE| Simulation step         Convergence     Electron number  ETRS Iterations
 RTBSE|            2533     0.51288435E-007     0.10000000E+002                6
 RTBSE| Simulation step         Convergence     Electron number  ETRS Iterations
 RTBSE|            2534     0.76662011E-007     0.10000000E+002                6
 RTBSE| Simulation step         Convergence     Electron number  ETRS Iterations
 RTBSE|            2535     0.17820470E-007     0.10000000E+002                7
 RTBSE| Simulation step         Convergence     Electron number  ETRS Iterations
 RTBSE|            2536     0.21487631E-007     0.10000000E+002                7
 RTBSE| Simulation step         Convergence     Electron number  ETRS Iterations
 RTBSE|            2537     0.23581688E-007     0.10000000E+002                7
 RTBSE| Simulation step         Convergence     Electron number  ETRS Iterations
 RTBSE|            2538     0.24216984E-007     0.10000000E+002                7
 RTBSE| Simulation step         Convergence     Electron number  ETRS Iterations
 RTBSE|            2539     0.23713083E-007     0.10000000E+002                7
 RTBSE| Simulation step         Convergence     Electron number  ETRS Iterations
 RTBSE|            2540     0.22514128E-007     0.10000000E+002                7
 RTBSE| Simulation step         Convergence     Electron number  ETRS Iterations
 RTBSE|            2541     0.21117422E-007     0.10000000E+002                7
 RTBSE| Simulation step         Convergence     Electron number  ETRS Iterations
 RTBSE|            2542     0.20035931E-007     0.10000000E+002                7
 RTBSE| Simulation step         Convergence     Electron number  ETRS Iterations
 RTBSE|            2543     0.19715991E-007     0.10000000E+002                7
 RTBSE| Simulation step         Convergence     Electron number  ETRS Iterations
 RTBSE|            2544     0.20528622E-007     0.10000000E+002                7
 RTBSE| Simulation step         Convergence     Electron number  ETRS Iterations
 RTBSE|            2545     0.22678800E-007     0.10000000E+002                7
 RTBSE| Simulation step         Convergence     Electron number  ETRS Iterations
 RTBSE|            2546     0.26125943E-007     0.10000000E+002                7
 RTBSE| Simulation step         Convergence     Electron number  ETRS Iterations
 RTBSE|            2547     0.30600835E-007     0.10000000E+002                7
 RTBSE| Simulation step         Convergence     Electron number  ETRS Iterations
 RTBSE|            2548     0.35498925E-007     0.10000000E+002                7
 RTBSE| Simulation step         Convergence     Electron number  ETRS Iterations
 RTBSE|            2549     0.40078024E-007     0.10000000E+002                7
 RTBSE| Simulation step         Convergence     Electron number  ETRS Iterations
 RTBSE|            2550     0.43490927E-007     0.10000000E+002                7
 RTBSE| Simulation step         Convergence     Electron number  ETRS Iterations
 RTBSE|            2551     0.45053113E-007     0.10000000E+002                7
 RTBSE| Simulation step         Convergence     Electron number  ETRS Iterations
 RTBSE|            2552     0.44364687E-007     0.10000000E+002                7
 RTBSE| Simulation step         Convergence     Electron number  ETRS Iterations
 RTBSE|            2553     0.41379377E-007     0.10000000E+002                7
 RTBSE| Simulation step         Convergence     Electron number  ETRS Iterations
 RTBSE|            2554     0.36332777E-007     0.10000000E+002                7
 RTBSE| Simulation step         Convergence     Electron number  ETRS Iterations
 RTBSE|            2555     0.30216455E-007     0.10000000E+002                7
 RTBSE| Simulation step         Convergence     Electron number  ETRS Iterations
 RTBSE|            2556     0.23494830E-007     0.10000000E+002                7
 RTBSE| Simulation step         Convergence     Electron number  ETRS Iterations
 RTBSE|            2557     0.18606238E-007     0.10000000E+002                7
 RTBSE| Simulation step         Convergence     Electron number  ETRS Iterations
 RTBSE|            2558     0.97413999E-007     0.10000000E+002                6
 RTBSE| Simulation step         Convergence     Electron number  ETRS Iterations
 RTBSE|            2559     0.59331890E-007     0.10000000E+002                6
 RTBSE| Simulation step         Convergence     Electron number  ETRS Iterations
 RTBSE|            2560     0.46418967E-007     0.10000000E+002                6
 RTBSE| Simulation step         Convergence     Electron number  ETRS Iterations
 RTBSE|            2561     0.65792141E-007     0.10000000E+002                6
 RTBSE| Simulation step         Convergence     Electron number  ETRS Iterations
 RTBSE|            2562     0.79099322E-007     0.10000000E+002                6
 RTBSE| Simulation step         Convergence     Electron number  ETRS Iterations
 RTBSE|            2563     0.85193800E-007     0.10000000E+002                6
 RTBSE| Simulation step         Convergence     Electron number  ETRS Iterations
 RTBSE|            2564     0.84840629E-007     0.10000000E+002                6
 RTBSE| Simulation step         Convergence     Electron number  ETRS Iterations
 RTBSE|            2565     0.79872256E-007     0.10000000E+002                6
 RTBSE| Simulation step         Convergence     Electron number  ETRS Iterations
 RTBSE|            2566     0.72586190E-007     0.10000000E+002                6
 RTBSE| Simulation step         Convergence     Electron number  ETRS Iterations
 RTBSE|            2567     0.65416968E-007     0.10000000E+002                6
 RTBSE| Simulation step         Convergence     Electron number  ETRS Iterations
 RTBSE|            2568     0.60453791E-007     0.10000000E+002                6
 RTBSE| Simulation step         Convergence     Electron number  ETRS Iterations
 RTBSE|            2569     0.59263111E-007     0.10000000E+002                6
 RTBSE| Simulation step         Convergence     Electron number  ETRS Iterations
 RTBSE|            2570     0.62661359E-007     0.10000000E+002                6
 RTBSE| Simulation step         Convergence     Electron number  ETRS Iterations
 RTBSE|            2571     0.70655859E-007     0.10000000E+002                6
 RTBSE| Simulation step         Convergence     Electron number  ETRS Iterations
 RTBSE|            2572     0.82536135E-007     0.10000000E+002                6
 RTBSE| Simulation step         Convergence     Electron number  ETRS Iterations
 RTBSE|            2573     0.96960864E-007     0.10000000E+002                6
 RTBSE| Simulation step         Convergence     Electron number  ETRS Iterations
 RTBSE|            2574     0.18921726E-007     0.10000000E+002                7
 RTBSE| Simulation step         Convergence     Electron number  ETRS Iterations
 RTBSE|            2575     0.21450327E-007     0.10000000E+002                7
 RTBSE| Simulation step         Convergence     Electron number  ETRS Iterations
 RTBSE|            2576     0.23506910E-007     0.10000000E+002                7
 RTBSE| Simulation step         Convergence     Electron number  ETRS Iterations
 RTBSE|            2577     0.24753360E-007     0.10000000E+002                7
 RTBSE| Simulation step         Convergence     Electron number  ETRS Iterations
 RTBSE|            2578     0.24861082E-007     0.10000000E+002                7
 RTBSE| Simulation step         Convergence     Electron number  ETRS Iterations
 RTBSE|            2579     0.23624748E-007     0.10000000E+002                7
 RTBSE| Simulation step         Convergence     Electron number  ETRS Iterations
 RTBSE|            2580     0.20904718E-007     0.10000000E+002                7
 RTBSE| Simulation step         Convergence     Electron number  ETRS Iterations
 RTBSE|            2581     0.17797985E-007     0.10000000E+002                7
 RTBSE| Simulation step         Convergence     Electron number  ETRS Iterations
 RTBSE|            2582     0.14635890E-007     0.10000000E+002                7
 RTBSE| Simulation step         Convergence     Electron number  ETRS Iterations
 RTBSE|            2583     0.80214232E-007     0.10000000E+002                6
 RTBSE| Simulation step         Convergence     Electron number  ETRS Iterations
 RTBSE|            2584     0.49979036E-007     0.10000000E+002                6
 RTBSE| Simulation step         Convergence     Electron number  ETRS Iterations
 RTBSE|            2585     0.52377989E-007     0.10000000E+002                6
 RTBSE| Simulation step         Convergence     Electron number  ETRS Iterations
 RTBSE|            2586     0.74874786E-007     0.10000000E+002                6
 RTBSE| Simulation step         Convergence     Electron number  ETRS Iterations
 RTBSE|            2587     0.94104838E-007     0.10000000E+002                6
 RTBSE| Simulation step         Convergence     Electron number  ETRS Iterations
 RTBSE|            2588     0.18846588E-007     0.10000000E+002                7
 RTBSE| Simulation step         Convergence     Electron number  ETRS Iterations
 RTBSE|            2589     0.20058687E-007     0.10000000E+002                7
 RTBSE| Simulation step         Convergence     Electron number  ETRS Iterations
 RTBSE|            2590     0.20184097E-007     0.10000000E+002                7
 RTBSE| Simulation step         Convergence     Electron number  ETRS Iterations
 RTBSE|            2591     0.19595524E-007     0.10000000E+002                7
 RTBSE| Simulation step         Convergence     Electron number  ETRS Iterations
 RTBSE|            2592     0.18767944E-007     0.10000000E+002                7
 RTBSE| Simulation step         Convergence     Electron number  ETRS Iterations
 RTBSE|            2593     0.18205781E-007     0.10000000E+002                7
 RTBSE| Simulation step         Convergence     Electron number  ETRS Iterations
 RTBSE|            2594     0.18413380E-007     0.10000000E+002                7
 RTBSE| Simulation step         Convergence     Electron number  ETRS Iterations
 RTBSE|            2595     0.19760853E-007     0.10000000E+002                7
 RTBSE| Simulation step         Convergence     Electron number  ETRS Iterations
 RTBSE|            2596     0.22460478E-007     0.10000000E+002                7
 RTBSE| Simulation step         Convergence     Electron number  ETRS Iterations
 RTBSE|            2597     0.26523997E-007     0.10000000E+002                7
 RTBSE| Simulation step         Convergence     Electron number  ETRS Iterations
 RTBSE|            2598     0.31654653E-007     0.10000000E+002                7
 RTBSE| Simulation step         Convergence     Electron number  ETRS Iterations
 RTBSE|            2599     0.37272161E-007     0.10000000E+002                7
 RTBSE| Simulation step         Convergence     Electron number  ETRS Iterations
 RTBSE|            2600     0.42549952E-007     0.10000000E+002                7
 RTBSE| Simulation step         Convergence     Electron number  ETRS Iterations
 RTBSE|            2601     0.46655786E-007     0.10000000E+002                7
 RTBSE| Simulation step         Convergence     Electron number  ETRS Iterations
 RTBSE|            2602     0.48804365E-007     0.10000000E+002                7
 RTBSE| Simulation step         Convergence     Electron number  ETRS Iterations
 RTBSE|            2603     0.48566795E-007     0.10000000E+002                7
 RTBSE| Simulation step         Convergence     Electron number  ETRS Iterations
 RTBSE|            2604     0.45874205E-007     0.10000000E+002                7
 RTBSE| Simulation step         Convergence     Electron number  ETRS Iterations
 RTBSE|            2605     0.40988285E-007     0.10000000E+002                7
 RTBSE| Simulation step         Convergence     Electron number  ETRS Iterations
 RTBSE|            2606     0.34395319E-007     0.10000000E+002                7
 RTBSE| Simulation step         Convergence     Electron number  ETRS Iterations
 RTBSE|            2607     0.26993313E-007     0.10000000E+002                7
 RTBSE| Simulation step         Convergence     Electron number  ETRS Iterations
 RTBSE|            2608     0.21367510E-007     0.10000000E+002                7
 RTBSE| Simulation step         Convergence     Electron number  ETRS Iterations
 RTBSE|            2609     0.16160491E-007     0.10000000E+002                7
 RTBSE| Simulation step         Convergence     Electron number  ETRS Iterations
 RTBSE|            2610     0.79483249E-007     0.10000000E+002                6
 RTBSE| Simulation step         Convergence     Electron number  ETRS Iterations
 RTBSE|            2611     0.42234534E-007     0.10000000E+002                6
 RTBSE| Simulation step         Convergence     Electron number  ETRS Iterations
 RTBSE|            2612     0.56273718E-007     0.10000000E+002                6
 RTBSE| Simulation step         Convergence     Electron number  ETRS Iterations
 RTBSE|            2613     0.72816838E-007     0.10000000E+002                6
 RTBSE| Simulation step         Convergence     Electron number  ETRS Iterations
 RTBSE|            2614     0.82419695E-007     0.10000000E+002                6
 RTBSE| Simulation step         Convergence     Electron number  ETRS Iterations
 RTBSE|            2615     0.85074633E-007     0.10000000E+002                6
 RTBSE| Simulation step         Convergence     Electron number  ETRS Iterations
 RTBSE|            2616     0.81988747E-007     0.10000000E+002                6
 RTBSE| Simulation step         Convergence     Electron number  ETRS Iterations
 RTBSE|            2617     0.75225965E-007     0.10000000E+002                6
 RTBSE| Simulation step         Convergence     Electron number  ETRS Iterations
 RTBSE|            2618     0.67167783E-007     0.10000000E+002                6
 RTBSE| Simulation step         Convergence     Electron number  ETRS Iterations
 RTBSE|            2619     0.60077436E-007     0.10000000E+002                6
 RTBSE| Simulation step         Convergence     Electron number  ETRS Iterations
 RTBSE|            2620     0.55921555E-007     0.10000000E+002                6
 RTBSE| Simulation step         Convergence     Electron number  ETRS Iterations
 RTBSE|            2621     0.56015827E-007     0.10000000E+002                6
 RTBSE| Simulation step         Convergence     Electron number  ETRS Iterations
 RTBSE|            2622     0.60974894E-007     0.10000000E+002                6
 RTBSE| Simulation step         Convergence     Electron number  ETRS Iterations
 RTBSE|            2623     0.70512434E-007     0.10000000E+002                6
 RTBSE| Simulation step         Convergence     Electron number  ETRS Iterations
 RTBSE|            2624     0.83782169E-007     0.10000000E+002                6
 RTBSE| Simulation step         Convergence     Electron number  ETRS Iterations
 RTBSE|            2625     0.99244882E-007     0.10000000E+002                6
 RTBSE| Simulation step         Convergence     Electron number  ETRS Iterations
 RTBSE|            2626     0.19264865E-007     0.10000000E+002                7
 RTBSE| Simulation step         Convergence     Electron number  ETRS Iterations
 RTBSE|            2627     0.21832895E-007     0.10000000E+002                7
 RTBSE| Simulation step         Convergence     Electron number  ETRS Iterations
 RTBSE|            2628     0.23841479E-007     0.10000000E+002                7
 RTBSE| Simulation step         Convergence     Electron number  ETRS Iterations
 RTBSE|            2629     0.24959895E-007     0.10000000E+002                7
 RTBSE| Simulation step         Convergence     Electron number  ETRS Iterations
 RTBSE|            2630     0.24880863E-007     0.10000000E+002                7
 RTBSE| Simulation step         Convergence     Electron number  ETRS Iterations
 RTBSE|            2631     0.23419515E-007     0.10000000E+002                7
 RTBSE| Simulation step         Convergence     Electron number  ETRS Iterations
 RTBSE|            2632     0.20480028E-007     0.10000000E+002                7
 RTBSE| Simulation step         Convergence     Electron number  ETRS Iterations
 RTBSE|            2633     0.17346986E-007     0.10000000E+002                7
 RTBSE| Simulation step         Convergence     Electron number  ETRS Iterations
 RTBSE|            2634     0.14133736E-007     0.10000000E+002                7
 RTBSE| Simulation step         Convergence     Electron number  ETRS Iterations
 RTBSE|            2635     0.78243215E-007     0.10000000E+002                6
 RTBSE| Simulation step         Convergence     Electron number  ETRS Iterations
 RTBSE|            2636     0.49943953E-007     0.10000000E+002                6
 RTBSE| Simulation step         Convergence     Electron number  ETRS Iterations
 RTBSE|            2637     0.49575794E-007     0.10000000E+002                6
 RTBSE| Simulation step         Convergence     Electron number  ETRS Iterations
 RTBSE|            2638     0.69074456E-007     0.10000000E+002                6
 RTBSE| Simulation step         Convergence     Electron number  ETRS Iterations
 RTBSE|            2639     0.85303821E-007     0.10000000E+002                6
 RTBSE| Simulation step         Convergence     Electron number  ETRS Iterations
 RTBSE|            2640     0.96572263E-007     0.10000000E+002                6
 RTBSE| Simulation step         Convergence     Electron number  ETRS Iterations
 RTBSE|            2641     0.17500306E-007     0.10000000E+002                7
 RTBSE| Simulation step         Convergence     Electron number  ETRS Iterations
 RTBSE|            2642     0.17820248E-007     0.10000000E+002                7
 RTBSE| Simulation step         Convergence     Electron number  ETRS Iterations
 RTBSE|            2643     0.17806592E-007     0.10000000E+002                7
 RTBSE| Simulation step         Convergence     Electron number  ETRS Iterations
 RTBSE|            2644     0.17951446E-007     0.10000000E+002                7
 RTBSE| Simulation step         Convergence     Electron number  ETRS Iterations
 RTBSE|            2645     0.18703791E-007     0.10000000E+002                7
 RTBSE| Simulation step         Convergence     Electron number  ETRS Iterations
 RTBSE|            2646     0.20434343E-007     0.10000000E+002                7
 RTBSE| Simulation step         Convergence     Electron number  ETRS Iterations
 RTBSE|            2647     0.23390949E-007     0.10000000E+002                7
 RTBSE| Simulation step         Convergence     Electron number  ETRS Iterations
 RTBSE|            2648     0.27585710E-007     0.10000000E+002                7
 RTBSE| Simulation step         Convergence     Electron number  ETRS Iterations
 RTBSE|            2649     0.32807321E-007     0.10000000E+002                7
 RTBSE| Simulation step         Convergence     Electron number  ETRS Iterations
 RTBSE|            2650     0.38513350E-007     0.10000000E+002                7
 RTBSE| Simulation step         Convergence     Electron number  ETRS Iterations
 RTBSE|            2651     0.44017225E-007     0.10000000E+002                7
 RTBSE| Simulation step         Convergence     Electron number  ETRS Iterations
 RTBSE|            2652     0.48459657E-007     0.10000000E+002                7
 RTBSE| Simulation step         Convergence     Electron number  ETRS Iterations
 RTBSE|            2653     0.51139598E-007     0.10000000E+002                7
 RTBSE| Simulation step         Convergence     Electron number  ETRS Iterations
 RTBSE|            2654     0.51512959E-007     0.10000000E+002                7
 RTBSE| Simulation step         Convergence     Electron number  ETRS Iterations
 RTBSE|            2655     0.49424040E-007     0.10000000E+002                7
 RTBSE| Simulation step         Convergence     Electron number  ETRS Iterations
 RTBSE|            2656     0.45027585E-007     0.10000000E+002                7
 RTBSE| Simulation step         Convergence     Electron number  ETRS Iterations
 RTBSE|            2657     0.38740719E-007     0.10000000E+002                7
 RTBSE| Simulation step         Convergence     Electron number  ETRS Iterations
 RTBSE|            2658     0.31152953E-007     0.10000000E+002                7
 RTBSE| Simulation step         Convergence     Electron number  ETRS Iterations
 RTBSE|            2659     0.23944633E-007     0.10000000E+002                7
 RTBSE| Simulation step         Convergence     Electron number  ETRS Iterations
 RTBSE|            2660     0.18753526E-007     0.10000000E+002                7
 RTBSE| Simulation step         Convergence     Electron number  ETRS Iterations
 RTBSE|            2661     0.99190936E-007     0.10000000E+002                6
 RTBSE| Simulation step         Convergence     Electron number  ETRS Iterations
 RTBSE|            2662     0.59171611E-007     0.10000000E+002                6
 RTBSE| Simulation step         Convergence     Electron number  ETRS Iterations
 RTBSE|            2663     0.46817595E-007     0.10000000E+002                6
 RTBSE| Simulation step         Convergence     Electron number  ETRS Iterations
 RTBSE|            2664     0.65058812E-007     0.10000000E+002                6
 RTBSE| Simulation step         Convergence     Electron number  ETRS Iterations
 RTBSE|            2665     0.76860022E-007     0.10000000E+002                6
 RTBSE| Simulation step         Convergence     Electron number  ETRS Iterations
 RTBSE|            2666     0.81162220E-007     0.10000000E+002                6
 RTBSE| Simulation step         Convergence     Electron number  ETRS Iterations
 RTBSE|            2667     0.78869227E-007     0.10000000E+002                6
 RTBSE| Simulation step         Convergence     Electron number  ETRS Iterations
 RTBSE|            2668     0.71895220E-007     0.10000000E+002                6
 RTBSE| Simulation step         Convergence     Electron number  ETRS Iterations
 RTBSE|            2669     0.62719887E-007     0.10000000E+002                6
 RTBSE| Simulation step         Convergence     Electron number  ETRS Iterations
 RTBSE|            2670     0.53973834E-007     0.10000000E+002                6
 RTBSE| Simulation step         Convergence     Electron number  ETRS Iterations
 RTBSE|            2671     0.48036389E-007     0.10000000E+002                6
 RTBSE| Simulation step         Convergence     Electron number  ETRS Iterations
 RTBSE|            2672     0.46642365E-007     0.10000000E+002                6
 RTBSE| Simulation step         Convergence     Electron number  ETRS Iterations
 RTBSE|            2673     0.50664052E-007     0.10000000E+002                6
 RTBSE| Simulation step         Convergence     Electron number  ETRS Iterations
 RTBSE|            2674     0.60055419E-007     0.10000000E+002                6
 RTBSE| Simulation step         Convergence     Electron number  ETRS Iterations
 RTBSE|            2675     0.74119126E-007     0.10000000E+002                6
 RTBSE| Simulation step         Convergence     Electron number  ETRS Iterations
 RTBSE|            2676     0.91413478E-007     0.10000000E+002                6
 RTBSE| Simulation step         Convergence     Electron number  ETRS Iterations
 RTBSE|            2677     0.18063889E-007     0.10000000E+002                7
 RTBSE| Simulation step         Convergence     Electron number  ETRS Iterations
 RTBSE|            2678     0.21214422E-007     0.10000000E+002                7
 RTBSE| Simulation step         Convergence     Electron number  ETRS Iterations
 RTBSE|            2679     0.23945767E-007     0.10000000E+002                7
 RTBSE| Simulation step         Convergence     Electron number  ETRS Iterations
 RTBSE|            2680     0.25892042E-007     0.10000000E+002                7
 RTBSE| Simulation step         Convergence     Electron number  ETRS Iterations
 RTBSE|            2681     0.26733557E-007     0.10000000E+002                7
 RTBSE| Simulation step         Convergence     Electron number  ETRS Iterations
 RTBSE|            2682     0.26218900E-007     0.10000000E+002                7
 RTBSE| Simulation step         Convergence     Electron number  ETRS Iterations
 RTBSE|            2683     0.24186475E-007     0.10000000E+002                7
 RTBSE| Simulation step         Convergence     Electron number  ETRS Iterations
 RTBSE|            2684     0.20677883E-007     0.10000000E+002                7
 RTBSE| Simulation step         Convergence     Electron number  ETRS Iterations
 RTBSE|            2685     0.17459727E-007     0.10000000E+002                7
 RTBSE| Simulation step         Convergence     Electron number  ETRS Iterations
 RTBSE|            2686     0.14008172E-007     0.10000000E+002                7
 RTBSE| Simulation step         Convergence     Electron number  ETRS Iterations
 RTBSE|            2687     0.77699905E-007     0.10000000E+002                6
 RTBSE| Simulation step         Convergence     Electron number  ETRS Iterations
 RTBSE|            2688     0.49675546E-007     0.10000000E+002                6
 RTBSE| Simulation step         Convergence     Electron number  ETRS Iterations
 RTBSE|            2689     0.51401914E-007     0.10000000E+002                6
 RTBSE| Simulation step         Convergence     Electron number  ETRS Iterations
 RTBSE|            2690     0.69655784E-007     0.10000000E+002                6
 RTBSE| Simulation step         Convergence     Electron number  ETRS Iterations
 RTBSE|            2691     0.84649791E-007     0.10000000E+002                6
 RTBSE| Simulation step         Convergence     Electron number  ETRS Iterations
 RTBSE|            2692     0.95281757E-007     0.10000000E+002                6
 RTBSE| Simulation step         Convergence     Electron number  ETRS Iterations
 RTBSE|            2693     0.17116152E-007     0.10000000E+002                7
 RTBSE| Simulation step         Convergence     Electron number  ETRS Iterations
 RTBSE|            2694     0.17781033E-007     0.10000000E+002                7
 RTBSE| Simulation step         Convergence     Electron number  ETRS Iterations
 RTBSE|            2695     0.18362088E-007     0.10000000E+002                7
 RTBSE| Simulation step         Convergence     Electron number  ETRS Iterations
 RTBSE|            2696     0.19264823E-007     0.10000000E+002                7
 RTBSE| Simulation step         Convergence     Electron number  ETRS Iterations
 RTBSE|            2697     0.20952213E-007     0.10000000E+002                7
 RTBSE| Simulation step         Convergence     Electron number  ETRS Iterations
 RTBSE|            2698     0.23718684E-007     0.10000000E+002                7
 RTBSE| Simulation step         Convergence     Electron number  ETRS Iterations
 RTBSE|            2699     0.27673376E-007     0.10000000E+002                7
 RTBSE| Simulation step         Convergence     Electron number  ETRS Iterations
 RTBSE|            2700     0.32717783E-007     0.10000000E+002                7
 RTBSE| Simulation step         Convergence     Electron number  ETRS Iterations
 RTBSE|            2701     0.38447606E-007     0.10000000E+002                7
 RTBSE| Simulation step         Convergence     Electron number  ETRS Iterations
 RTBSE|            2702     0.44188976E-007     0.10000000E+002                7
 RTBSE| Simulation step         Convergence     Electron number  ETRS Iterations
 RTBSE|            2703     0.49138564E-007     0.10000000E+002                7
 RTBSE| Simulation step         Convergence     Electron number  ETRS Iterations
 RTBSE|            2704     0.52510843E-007     0.10000000E+002                7
 RTBSE| Simulation step         Convergence     Electron number  ETRS Iterations
 RTBSE|            2705     0.53661342E-007     0.10000000E+002                7
 RTBSE| Simulation step         Convergence     Electron number  ETRS Iterations
 RTBSE|            2706     0.52271588E-007     0.10000000E+002                7
 RTBSE| Simulation step         Convergence     Electron number  ETRS Iterations
 RTBSE|            2707     0.48397816E-007     0.10000000E+002                7
 RTBSE| Simulation step         Convergence     Electron number  ETRS Iterations
 RTBSE|            2708     0.42398741E-007     0.10000000E+002                7
 RTBSE| Simulation step         Convergence     Electron number  ETRS Iterations
 RTBSE|            2709     0.34864762E-007     0.10000000E+002                7
 RTBSE| Simulation step         Convergence     Electron number  ETRS Iterations
 RTBSE|            2710     0.26468454E-007     0.10000000E+002                7
 RTBSE| Simulation step         Convergence     Electron number  ETRS Iterations
 RTBSE|            2711     0.20470891E-007     0.10000000E+002                7
 RTBSE| Simulation step         Convergence     Electron number  ETRS Iterations
 RTBSE|            2712     0.15119759E-007     0.10000000E+002                7
 RTBSE| Simulation step         Convergence     Electron number  ETRS Iterations
 RTBSE|            2713     0.74108386E-007     0.10000000E+002                6
 RTBSE| Simulation step         Convergence     Electron number  ETRS Iterations
 RTBSE|            2714     0.37884053E-007     0.10000000E+002                6
 RTBSE| Simulation step         Convergence     Electron number  ETRS Iterations
 RTBSE|            2715     0.50965386E-007     0.10000000E+002                6
 RTBSE| Simulation step         Convergence     Electron number  ETRS Iterations
 RTBSE|            2716     0.62755285E-007     0.10000000E+002                6
 RTBSE| Simulation step         Convergence     Electron number  ETRS Iterations
 RTBSE|            2717     0.67546111E-007     0.10000000E+002                6
 RTBSE| Simulation step         Convergence     Electron number  ETRS Iterations
 RTBSE|            2718     0.66018271E-007     0.10000000E+002                6
 RTBSE| Simulation step         Convergence     Electron number  ETRS Iterations
 RTBSE|            2719     0.60021304E-007     0.10000000E+002                6
 RTBSE| Simulation step         Convergence     Electron number  ETRS Iterations
 RTBSE|            2720     0.52050447E-007     0.10000000E+002                6
 RTBSE| Simulation step         Convergence     Electron number  ETRS Iterations
 RTBSE|            2721     0.44705507E-007     0.10000000E+002                6
 RTBSE| Simulation step         Convergence     Electron number  ETRS Iterations
 RTBSE|            2722     0.40262808E-007     0.10000000E+002                6
 RTBSE| Simulation step         Convergence     Electron number  ETRS Iterations
 RTBSE|            2723     0.40448499E-007     0.10000000E+002                6
 RTBSE| Simulation step         Convergence     Electron number  ETRS Iterations
 RTBSE|            2724     0.46023330E-007     0.10000000E+002                6
 RTBSE| Simulation step         Convergence     Electron number  ETRS Iterations
 RTBSE|            2725     0.57048996E-007     0.10000000E+002                6
 RTBSE| Simulation step         Convergence     Electron number  ETRS Iterations
 RTBSE|            2726     0.72822504E-007     0.10000000E+002                6
 RTBSE| Simulation step         Convergence     Electron number  ETRS Iterations
 RTBSE|            2727     0.92003302E-007     0.10000000E+002                6
 RTBSE| Simulation step         Convergence     Electron number  ETRS Iterations
 RTBSE|            2728     0.18193522E-007     0.10000000E+002                7
 RTBSE| Simulation step         Convergence     Electron number  ETRS Iterations
 RTBSE|            2729     0.21699196E-007     0.10000000E+002                7
 RTBSE| Simulation step         Convergence     Electron number  ETRS Iterations
 RTBSE|            2730     0.24826980E-007     0.10000000E+002                7
 RTBSE| Simulation step         Convergence     Electron number  ETRS Iterations
 RTBSE|            2731     0.27211545E-007     0.10000000E+002                7
 RTBSE| Simulation step         Convergence     Electron number  ETRS Iterations
 RTBSE|            2732     0.28519323E-007     0.10000000E+002                7
 RTBSE| Simulation step         Convergence     Electron number  ETRS Iterations
 RTBSE|            2733     0.28485924E-007     0.10000000E+002                7
 RTBSE| Simulation step         Convergence     Electron number  ETRS Iterations
 RTBSE|            2734     0.26945724E-007     0.10000000E+002                7
 RTBSE| Simulation step         Convergence     Electron number  ETRS Iterations
 RTBSE|            2735     0.23896812E-007     0.10000000E+002                7
 RTBSE| Simulation step         Convergence     Electron number  ETRS Iterations
 RTBSE|            2736     0.19850292E-007     0.10000000E+002                7
 RTBSE| Simulation step         Convergence     Electron number  ETRS Iterations
 RTBSE|            2737     0.16523415E-007     0.10000000E+002                7
 RTBSE| Simulation step         Convergence     Electron number  ETRS Iterations
 RTBSE|            2738     0.95867396E-007     0.10000000E+002                6
 RTBSE| Simulation step         Convergence     Electron number  ETRS Iterations
 RTBSE|            2739     0.67708752E-007     0.10000000E+002                6
 RTBSE| Simulation step         Convergence     Electron number  ETRS Iterations
 RTBSE|            2740     0.40602007E-007     0.10000000E+002                6
 RTBSE| Simulation step         Convergence     Electron number  ETRS Iterations
 RTBSE|            2741     0.58062874E-007     0.10000000E+002                6
 RTBSE| Simulation step         Convergence     Electron number  ETRS Iterations
 RTBSE|            2742     0.74128596E-007     0.10000000E+002                6
 RTBSE| Simulation step         Convergence     Electron number  ETRS Iterations
 RTBSE|            2743     0.86186885E-007     0.10000000E+002                6
 RTBSE| Simulation step         Convergence     Electron number  ETRS Iterations
 RTBSE|            2744     0.94104382E-007     0.10000000E+002                6
 RTBSE| Simulation step         Convergence     Electron number  ETRS Iterations
 RTBSE|            2745     0.99165827E-007     0.10000000E+002                6
 RTBSE| Simulation step         Convergence     Electron number  ETRS Iterations
 RTBSE|            2746     0.17131076E-007     0.10000000E+002                7
 RTBSE| Simulation step         Convergence     Electron number  ETRS Iterations
 RTBSE|            2747     0.18046938E-007     0.10000000E+002                7
 RTBSE| Simulation step         Convergence     Electron number  ETRS Iterations
 RTBSE|            2748     0.19736892E-007     0.10000000E+002                7
 RTBSE| Simulation step         Convergence     Electron number  ETRS Iterations
 RTBSE|            2749     0.22551124E-007     0.10000000E+002                7
 RTBSE| Simulation step         Convergence     Electron number  ETRS Iterations
 RTBSE|            2750     0.26680815E-007     0.10000000E+002                7
 RTBSE| Simulation step         Convergence     Electron number  ETRS Iterations
 RTBSE|            2751     0.32008338E-007     0.10000000E+002                7
 RTBSE| Simulation step         Convergence     Electron number  ETRS Iterations
 RTBSE|            2752     0.38176239E-007     0.10000000E+002                7
 RTBSE| Simulation step         Convergence     Electron number  ETRS Iterations
 RTBSE|            2753     0.44478761E-007     0.10000000E+002                7
 RTBSE| Simulation step         Convergence     Electron number  ETRS Iterations
 RTBSE|            2754     0.50049399E-007     0.10000000E+002                7
 RTBSE| Simulation step         Convergence     Electron number  ETRS Iterations
 RTBSE|            2755     0.54038906E-007     0.10000000E+002                7
 RTBSE| Simulation step         Convergence     Electron number  ETRS Iterations
 RTBSE|            2756     0.55767177E-007     0.10000000E+002                7
 RTBSE| Simulation step         Convergence     Electron number  ETRS Iterations
 RTBSE|            2757     0.54882879E-007     0.10000000E+002                7
 RTBSE| Simulation step         Convergence     Electron number  ETRS Iterations
 RTBSE|            2758     0.51395702E-007     0.10000000E+002                7
 RTBSE| Simulation step         Convergence     Electron number  ETRS Iterations
 RTBSE|            2759     0.45707781E-007     0.10000000E+002                7
 RTBSE| Simulation step         Convergence     Electron number  ETRS Iterations
 RTBSE|            2760     0.38425590E-007     0.10000000E+002                7
 RTBSE| Simulation step         Convergence     Electron number  ETRS Iterations
 RTBSE|            2761     0.30254833E-007     0.10000000E+002                7
 RTBSE| Simulation step         Convergence     Electron number  ETRS Iterations
 RTBSE|            2762     0.22191951E-007     0.10000000E+002                7
 RTBSE| Simulation step         Convergence     Electron number  ETRS Iterations
 RTBSE|            2763     0.17269258E-007     0.10000000E+002                7
 RTBSE| Simulation step         Convergence     Electron number  ETRS Iterations
 RTBSE|            2764     0.95419805E-007     0.10000000E+002                6
 RTBSE| Simulation step         Convergence     Electron number  ETRS Iterations
 RTBSE|            2765     0.60384276E-007     0.10000000E+002                6
 RTBSE| Simulation step         Convergence     Electron number  ETRS Iterations
 RTBSE|            2766     0.32722781E-007     0.10000000E+002                6
 RTBSE| Simulation step         Convergence     Electron number  ETRS Iterations
 RTBSE|            2767     0.43603146E-007     0.10000000E+002                6
 RTBSE| Simulation step         Convergence     Electron number  ETRS Iterations
 RTBSE|            2768     0.50268787E-007     0.10000000E+002                6
 RTBSE| Simulation step         Convergence     Electron number  ETRS Iterations
 RTBSE|            2769     0.51785822E-007     0.10000000E+002                6
 RTBSE| Simulation step         Convergence     Electron number  ETRS Iterations
 RTBSE|            2770     0.49425120E-007     0.10000000E+002                6
 RTBSE| Simulation step         Convergence     Electron number  ETRS Iterations
 RTBSE|            2771     0.45200750E-007     0.10000000E+002                6
 RTBSE| Simulation step         Convergence     Electron number  ETRS Iterations
 RTBSE|            2772     0.41365335E-007     0.10000000E+002                6
 RTBSE| Simulation step         Convergence     Electron number  ETRS Iterations
 RTBSE|            2773     0.39987028E-007     0.10000000E+002                6
 RTBSE| Simulation step         Convergence     Electron number  ETRS Iterations
 RTBSE|            2774     0.42597342E-007     0.10000000E+002                6
 RTBSE| Simulation step         Convergence     Electron number  ETRS Iterations
 RTBSE|            2775     0.49972496E-007     0.10000000E+002                6
 RTBSE| Simulation step         Convergence     Electron number  ETRS Iterations
 RTBSE|            2776     0.62123569E-007     0.10000000E+002                6
 RTBSE| Simulation step         Convergence     Electron number  ETRS Iterations
 RTBSE|            2777     0.78439475E-007     0.10000000E+002                6
 RTBSE| Simulation step         Convergence     Electron number  ETRS Iterations
 RTBSE|            2778     0.97773986E-007     0.10000000E+002                6
 RTBSE| Simulation step         Convergence     Electron number  ETRS Iterations
 RTBSE|            2779     0.18968164E-007     0.10000000E+002                7
 RTBSE| Simulation step         Convergence     Electron number  ETRS Iterations
 RTBSE|            2780     0.22424699E-007     0.10000000E+002                7
 RTBSE| Simulation step         Convergence     Electron number  ETRS Iterations
 RTBSE|            2781     0.25511759E-007     0.10000000E+002                7
 RTBSE| Simulation step         Convergence     Electron number  ETRS Iterations
 RTBSE|            2782     0.27872421E-007     0.10000000E+002                7
 RTBSE| Simulation step         Convergence     Electron number  ETRS Iterations
 RTBSE|            2783     0.29223481E-007     0.10000000E+002                7
 RTBSE| Simulation step         Convergence     Electron number  ETRS Iterations
 RTBSE|            2784     0.29288346E-007     0.10000000E+002                7
 RTBSE| Simulation step         Convergence     Electron number  ETRS Iterations
 RTBSE|            2785     0.27923164E-007     0.10000000E+002                7
 RTBSE| Simulation step         Convergence     Electron number  ETRS Iterations
 RTBSE|            2786     0.25068752E-007     0.10000000E+002                7
 RTBSE| Simulation step         Convergence     Electron number  ETRS Iterations
 RTBSE|            2787     0.20904024E-007     0.10000000E+002                7
 RTBSE| Simulation step         Convergence     Electron number  ETRS Iterations
 RTBSE|            2788     0.17414191E-007     0.10000000E+002                7
 RTBSE| Simulation step         Convergence     Electron number  ETRS Iterations
 RTBSE|            2789     0.13679504E-007     0.10000000E+002                7
 RTBSE| Simulation step         Convergence     Electron number  ETRS Iterations
 RTBSE|            2790     0.75966358E-007     0.10000000E+002                6
 RTBSE| Simulation step         Convergence     Electron number  ETRS Iterations
 RTBSE|            2791     0.49316905E-007     0.10000000E+002                6
 RTBSE| Simulation step         Convergence     Electron number  ETRS Iterations
 RTBSE|            2792     0.45359013E-007     0.10000000E+002                6
 RTBSE| Simulation step         Convergence     Electron number  ETRS Iterations
 RTBSE|            2793     0.59173466E-007     0.10000000E+002                6
 RTBSE| Simulation step         Convergence     Electron number  ETRS Iterations
 RTBSE|            2794     0.69917651E-007     0.10000000E+002                6
 RTBSE| Simulation step         Convergence     Electron number  ETRS Iterations
 RTBSE|            2795     0.77385470E-007     0.10000000E+002                6
 RTBSE| Simulation step         Convergence     Electron number  ETRS Iterations
 RTBSE|            2796     0.83015313E-007     0.10000000E+002                6
 RTBSE| Simulation step         Convergence     Electron number  ETRS Iterations
 RTBSE|            2797     0.88981383E-007     0.10000000E+002                6
 RTBSE| Simulation step         Convergence     Electron number  ETRS Iterations
 RTBSE|            2798     0.97807824E-007     0.10000000E+002                6
 RTBSE| Simulation step         Convergence     Electron number  ETRS Iterations
 RTBSE|            2799     0.17814694E-007     0.10000000E+002                7
 RTBSE| Simulation step         Convergence     Electron number  ETRS Iterations
 RTBSE|            2800     0.21166206E-007     0.10000000E+002                7
 RTBSE| Simulation step         Convergence     Electron number  ETRS Iterations
 RTBSE|            2801     0.25831494E-007     0.10000000E+002                7
 RTBSE| Simulation step         Convergence     Electron number  ETRS Iterations
 RTBSE|            2802     0.31612755E-007     0.10000000E+002                7
 RTBSE| Simulation step         Convergence     Electron number  ETRS Iterations
 RTBSE|            2803     0.38131740E-007     0.10000000E+002                7
 RTBSE| Simulation step         Convergence     Electron number  ETRS Iterations
 RTBSE|            2804     0.44698802E-007     0.10000000E+002                7
 RTBSE| Simulation step         Convergence     Electron number  ETRS Iterations
 RTBSE|            2805     0.50527331E-007     0.10000000E+002                7
 RTBSE| Simulation step         Convergence     Electron number  ETRS Iterations
 RTBSE|            2806     0.54843108E-007     0.10000000E+002                7
 RTBSE| Simulation step         Convergence     Electron number  ETRS Iterations
 RTBSE|            2807     0.57017974E-007     0.10000000E+002                7
 RTBSE| Simulation step         Convergence     Electron number  ETRS Iterations
 RTBSE|            2808     0.56724691E-007     0.10000000E+002                7
 RTBSE| Simulation step         Convergence     Electron number  ETRS Iterations
 RTBSE|            2809     0.53973003E-007     0.10000000E+002                7
 RTBSE| Simulation step         Convergence     Electron number  ETRS Iterations
 RTBSE|            2810     0.49054843E-007     0.10000000E+002                7
 RTBSE| Simulation step         Convergence     Electron number  ETRS Iterations
 RTBSE|            2811     0.42504648E-007     0.10000000E+002                7
 RTBSE| Simulation step         Convergence     Electron number  ETRS Iterations
 RTBSE|            2812     0.34947440E-007     0.10000000E+002                7
 RTBSE| Simulation step         Convergence     Electron number  ETRS Iterations
 RTBSE|            2813     0.27005330E-007     0.10000000E+002                7
 RTBSE| Simulation step         Convergence     Electron number  ETRS Iterations
 RTBSE|            2814     0.20189825E-007     0.10000000E+002                7
 RTBSE| Simulation step         Convergence     Electron number  ETRS Iterations
 RTBSE|            2815     0.15692671E-007     0.10000000E+002                7
 RTBSE| Simulation step         Convergence     Electron number  ETRS Iterations
 RTBSE|            2816     0.87841464E-007     0.10000000E+002                6
 RTBSE| Simulation step         Convergence     Electron number  ETRS Iterations
 RTBSE|            2817     0.56914442E-007     0.10000000E+002                6
 RTBSE| Simulation step         Convergence     Electron number  ETRS Iterations
 RTBSE|            2818     0.31744279E-007     0.10000000E+002                6
 RTBSE| Simulation step         Convergence     Electron number  ETRS Iterations
 RTBSE|            2819     0.38434545E-007     0.10000000E+002                6
 RTBSE| Simulation step         Convergence     Electron number  ETRS Iterations
 RTBSE|            2820     0.43736475E-007     0.10000000E+002                6
 RTBSE| Simulation step         Convergence     Electron number  ETRS Iterations
 RTBSE|            2821     0.45636228E-007     0.10000000E+002                6
 RTBSE| Simulation step         Convergence     Electron number  ETRS Iterations
 RTBSE|            2822     0.45419787E-007     0.10000000E+002                6
 RTBSE| Simulation step         Convergence     Electron number  ETRS Iterations
 RTBSE|            2823     0.44884009E-007     0.10000000E+002                6
 RTBSE| Simulation step         Convergence     Electron number  ETRS Iterations
 RTBSE|            2824     0.45837276E-007     0.10000000E+002                6
 RTBSE| Simulation step         Convergence     Electron number  ETRS Iterations
 RTBSE|            2825     0.49640913E-007     0.10000000E+002                6
 RTBSE| Simulation step         Convergence     Electron number  ETRS Iterations
 RTBSE|            2826     0.57103221E-007     0.10000000E+002                6
 RTBSE| Simulation step         Convergence     Electron number  ETRS Iterations
 RTBSE|            2827     0.68438197E-007     0.10000000E+002                6
 RTBSE| Simulation step         Convergence     Electron number  ETRS Iterations
 RTBSE|            2828     0.83258300E-007     0.10000000E+002                6
 RTBSE| Simulation step         Convergence     Electron number  ETRS Iterations
 RTBSE|            2829     0.15907769E-007     0.10000000E+002                7
 RTBSE| Simulation step         Convergence     Electron number  ETRS Iterations
 RTBSE|            2830     0.19031391E-007     0.10000000E+002                7
 RTBSE| Simulation step         Convergence     Electron number  ETRS Iterations
 RTBSE|            2831     0.22117030E-007     0.10000000E+002                7
 RTBSE| Simulation step         Convergence     Electron number  ETRS Iterations
 RTBSE|            2832     0.24866306E-007     0.10000000E+002                7
 RTBSE| Simulation step         Convergence     Electron number  ETRS Iterations
 RTBSE|            2833     0.26989338E-007     0.10000000E+002                7
 RTBSE| Simulation step         Convergence     Electron number  ETRS Iterations
 RTBSE|            2834     0.28208710E-007     0.10000000E+002                7
 RTBSE| Simulation step         Convergence     Electron number  ETRS Iterations
 RTBSE|            2835     0.28313764E-007     0.10000000E+002                7
 RTBSE| Simulation step         Convergence     Electron number  ETRS Iterations
 RTBSE|            2836     0.27147173E-007     0.10000000E+002                7
 RTBSE| Simulation step         Convergence     Electron number  ETRS Iterations
 RTBSE|            2837     0.24701290E-007     0.10000000E+002                7
 RTBSE| Simulation step         Convergence     Electron number  ETRS Iterations
 RTBSE|            2838     0.21116508E-007     0.10000000E+002                7
 RTBSE| Simulation step         Convergence     Electron number  ETRS Iterations
 RTBSE|            2839     0.17369186E-007     0.10000000E+002                7
 RTBSE| Simulation step         Convergence     Electron number  ETRS Iterations
 RTBSE|            2840     0.14174815E-007     0.10000000E+002                7
 RTBSE| Simulation step         Convergence     Electron number  ETRS Iterations
 RTBSE|            2841     0.83926075E-007     0.10000000E+002                6
 RTBSE| Simulation step         Convergence     Electron number  ETRS Iterations
 RTBSE|            2842     0.62498211E-007     0.10000000E+002                6
 RTBSE| Simulation step         Convergence     Electron number  ETRS Iterations
 RTBSE|            2843     0.43007284E-007     0.10000000E+002                6
 RTBSE| Simulation step         Convergence     Electron number  ETRS Iterations
 RTBSE|            2844     0.39002066E-007     0.10000000E+002                6
 RTBSE| Simulation step         Convergence     Electron number  ETRS Iterations
 RTBSE|            2845     0.48082122E-007     0.10000000E+002                6
 RTBSE| Simulation step         Convergence     Electron number  ETRS Iterations
 RTBSE|            2846     0.55997550E-007     0.10000000E+002                6
 RTBSE| Simulation step         Convergence     Electron number  ETRS Iterations
 RTBSE|            2847     0.63615928E-007     0.10000000E+002                6
 RTBSE| Simulation step         Convergence     Electron number  ETRS Iterations
 RTBSE|            2848     0.72505720E-007     0.10000000E+002                6
 RTBSE| Simulation step         Convergence     Electron number  ETRS Iterations
 RTBSE|            2849     0.84567574E-007     0.10000000E+002                6
 RTBSE| Simulation step         Convergence     Electron number  ETRS Iterations
 RTBSE|            2850     0.15669338E-007     0.10000000E+002                7
 RTBSE| Simulation step         Convergence     Electron number  ETRS Iterations
 RTBSE|            2851     0.19503836E-007     0.10000000E+002                7
 RTBSE| Simulation step         Convergence     Electron number  ETRS Iterations
 RTBSE|            2852     0.24448052E-007     0.10000000E+002                7
 RTBSE| Simulation step         Convergence     Electron number  ETRS Iterations
 RTBSE|            2853     0.30399369E-007     0.10000000E+002                7
 RTBSE| Simulation step         Convergence     Electron number  ETRS Iterations
 RTBSE|            2854     0.37013359E-007     0.10000000E+002                7
 RTBSE| Simulation step         Convergence     Electron number  ETRS Iterations
 RTBSE|            2855     0.43773177E-007     0.10000000E+002                7
 RTBSE| Simulation step         Convergence     Electron number  ETRS Iterations
 RTBSE|            2856     0.49992731E-007     0.10000000E+002                7
 RTBSE| Simulation step         Convergence     Electron number  ETRS Iterations
 RTBSE|            2857     0.54950456E-007     0.10000000E+002                7
 RTBSE| Simulation step         Convergence     Electron number  ETRS Iterations
 RTBSE|            2858     0.58024057E-007     0.10000000E+002                7
 RTBSE| Simulation step         Convergence     Electron number  ETRS Iterations
 RTBSE|            2859     0.58829862E-007     0.10000000E+002                7
 RTBSE| Simulation step         Convergence     Electron number  ETRS Iterations
 RTBSE|            2860     0.57212280E-007     0.10000000E+002                7
 RTBSE| Simulation step         Convergence     Electron number  ETRS Iterations
 RTBSE|            2861     0.53334371E-007     0.10000000E+002                7
 RTBSE| Simulation step         Convergence     Electron number  ETRS Iterations
 RTBSE|            2862     0.47594900E-007     0.10000000E+002                7
 RTBSE| Simulation step         Convergence     Electron number  ETRS Iterations
 RTBSE|            2863     0.40470959E-007     0.10000000E+002                7
 RTBSE| Simulation step         Convergence     Electron number  ETRS Iterations
 RTBSE|            2864     0.32602315E-007     0.10000000E+002                7
 RTBSE| Simulation step         Convergence     Electron number  ETRS Iterations
 RTBSE|            2865     0.24610091E-007     0.10000000E+002                7
 RTBSE| Simulation step         Convergence     Electron number  ETRS Iterations
 RTBSE|            2866     0.18953177E-007     0.10000000E+002                7
 RTBSE| Simulation step         Convergence     Electron number  ETRS Iterations
 RTBSE|            2867     0.14574069E-007     0.10000000E+002                7
 RTBSE| Simulation step         Convergence     Electron number  ETRS Iterations
 RTBSE|            2868     0.79783550E-007     0.10000000E+002                6
 RTBSE| Simulation step         Convergence     Electron number  ETRS Iterations
 RTBSE|            2869     0.50912813E-007     0.10000000E+002                6
 RTBSE| Simulation step         Convergence     Electron number  ETRS Iterations
 RTBSE|            2870     0.31579982E-007     0.10000000E+002                6
 RTBSE| Simulation step         Convergence     Electron number  ETRS Iterations
 RTBSE|            2871     0.39371992E-007     0.10000000E+002                6
 RTBSE| Simulation step         Convergence     Electron number  ETRS Iterations
 RTBSE|            2872     0.44683126E-007     0.10000000E+002                6
 RTBSE| Simulation step         Convergence     Electron number  ETRS Iterations
 RTBSE|            2873     0.47569129E-007     0.10000000E+002                6
 RTBSE| Simulation step         Convergence     Electron number  ETRS Iterations
 RTBSE|            2874     0.49264213E-007     0.10000000E+002                6
 RTBSE| Simulation step         Convergence     Electron number  ETRS Iterations
 RTBSE|            2875     0.51244938E-007     0.10000000E+002                6
 RTBSE| Simulation step         Convergence     Electron number  ETRS Iterations
 RTBSE|            2876     0.54888337E-007     0.10000000E+002                6
 RTBSE| Simulation step         Convergence     Electron number  ETRS Iterations
 RTBSE|            2877     0.61161200E-007     0.10000000E+002                6
 RTBSE| Simulation step         Convergence     Electron number  ETRS Iterations
 RTBSE|            2878     0.70458390E-007     0.10000000E+002                6
 RTBSE| Simulation step         Convergence     Electron number  ETRS Iterations
 RTBSE|            2879     0.82630760E-007     0.10000000E+002                6
 RTBSE| Simulation step         Convergence     Electron number  ETRS Iterations
 RTBSE|            2880     0.97001421E-007     0.10000000E+002                6
 RTBSE| Simulation step         Convergence     Electron number  ETRS Iterations
 RTBSE|            2881     0.17972760E-007     0.10000000E+002                7
 RTBSE| Simulation step         Convergence     Electron number  ETRS Iterations
 RTBSE|            2882     0.20654450E-007     0.10000000E+002                7
 RTBSE| Simulation step         Convergence     Electron number  ETRS Iterations
 RTBSE|            2883     0.23108468E-007     0.10000000E+002                7
 RTBSE| Simulation step         Convergence     Electron number  ETRS Iterations
 RTBSE|            2884     0.25072641E-007     0.10000000E+002                7
 RTBSE| Simulation step         Convergence     Electron number  ETRS Iterations
 RTBSE|            2885     0.26338391E-007     0.10000000E+002                7
 RTBSE| Simulation step         Convergence     Electron number  ETRS Iterations
 RTBSE|            2886     0.26699507E-007     0.10000000E+002                7
 RTBSE| Simulation step         Convergence     Electron number  ETRS Iterations
 RTBSE|            2887     0.26074877E-007     0.10000000E+002                7
 RTBSE| Simulation step         Convergence     Electron number  ETRS Iterations
 RTBSE|            2888     0.24421359E-007     0.10000000E+002                7
 RTBSE| Simulation step         Convergence     Electron number  ETRS Iterations
 RTBSE|            2889     0.21852954E-007     0.10000000E+002                7
 RTBSE| Simulation step         Convergence     Electron number  ETRS Iterations
 RTBSE|            2890     0.18537750E-007     0.10000000E+002                7
 RTBSE| Simulation step         Convergence     Electron number  ETRS Iterations
 RTBSE|            2891     0.15544970E-007     0.10000000E+002                7
 RTBSE| Simulation step         Convergence     Electron number  ETRS Iterations
 RTBSE|            2892     0.98772507E-007     0.10000000E+002                6
 RTBSE| Simulation step         Convergence     Electron number  ETRS Iterations
 RTBSE|            2893     0.82688764E-007     0.10000000E+002                6
 RTBSE| Simulation step         Convergence     Electron number  ETRS Iterations
 RTBSE|            2894     0.67187837E-007     0.10000000E+002                6
 RTBSE| Simulation step         Convergence     Electron number  ETRS Iterations
 RTBSE|            2895     0.53047139E-007     0.10000000E+002                6
 RTBSE| Simulation step         Convergence     Electron number  ETRS Iterations
 RTBSE|            2896     0.40649899E-007     0.10000000E+002                6
 RTBSE| Simulation step         Convergence     Electron number  ETRS Iterations
 RTBSE|            2897     0.38688221E-007     0.10000000E+002                6
 RTBSE| Simulation step         Convergence     Electron number  ETRS Iterations
 RTBSE|            2898     0.47718221E-007     0.10000000E+002                6
 RTBSE| Simulation step         Convergence     Electron number  ETRS Iterations
 RTBSE|            2899     0.58585742E-007     0.10000000E+002                6
 RTBSE| Simulation step         Convergence     Electron number  ETRS Iterations
 RTBSE|            2900     0.72441949E-007     0.10000000E+002                6
 RTBSE| Simulation step         Convergence     Electron number  ETRS Iterations
 RTBSE|            2901     0.90628914E-007     0.10000000E+002                6
 RTBSE| Simulation step         Convergence     Electron number  ETRS Iterations
 RTBSE|            2902     0.17625618E-007     0.10000000E+002                7
 RTBSE| Simulation step         Convergence     Electron number  ETRS Iterations
 RTBSE|            2903     0.22843523E-007     0.10000000E+002                7
 RTBSE| Simulation step         Convergence     Electron number  ETRS Iterations
 RTBSE|            2904     0.29091929E-007     0.10000000E+002                7
 RTBSE| Simulation step         Convergence     Electron number  ETRS Iterations
 RTBSE|            2905     0.36099823E-007     0.10000000E+002                7
 RTBSE| Simulation step         Convergence     Electron number  ETRS Iterations
 RTBSE|            2906     0.43386565E-007     0.10000000E+002                7
 RTBSE| Simulation step         Convergence     Electron number  ETRS Iterations
 RTBSE|            2907     0.50260477E-007     0.10000000E+002                7
 RTBSE| Simulation step         Convergence     Electron number  ETRS Iterations
 RTBSE|            2908     0.56006861E-007     0.10000000E+002                7
 RTBSE| Simulation step         Convergence     Electron number  ETRS Iterations
 RTBSE|            2909     0.59908156E-007     0.10000000E+002                7
 RTBSE| Simulation step         Convergence     Electron number  ETRS Iterations
 RTBSE|            2910     0.61513794E-007     0.10000000E+002                7
 RTBSE| Simulation step         Convergence     Electron number  ETRS Iterations
 RTBSE|            2911     0.60580612E-007     0.10000000E+002                7
 RTBSE| Simulation step         Convergence     Electron number  ETRS Iterations
 RTBSE|            2912     0.57203186E-007     0.10000000E+002                7
 RTBSE| Simulation step         Convergence     Electron number  ETRS Iterations
 RTBSE|            2913     0.51720105E-007     0.10000000E+002                7
 RTBSE| Simulation step         Convergence     Electron number  ETRS Iterations
 RTBSE|            2914     0.44684789E-007     0.10000000E+002                7
 RTBSE| Simulation step         Convergence     Electron number  ETRS Iterations
 RTBSE|            2915     0.36749334E-007     0.10000000E+002                7
 RTBSE| Simulation step         Convergence     Electron number  ETRS Iterations
 RTBSE|            2916     0.28571903E-007     0.10000000E+002                7
 RTBSE| Simulation step         Convergence     Electron number  ETRS Iterations
 RTBSE|            2917     0.21130061E-007     0.10000000E+002                7
 RTBSE| Simulation step         Convergence     Electron number  ETRS Iterations
 RTBSE|            2918     0.16766388E-007     0.10000000E+002                7
 RTBSE| Simulation step         Convergence     Electron number  ETRS Iterations
 RTBSE|            2919     0.96578177E-007     0.10000000E+002                6
 RTBSE| Simulation step         Convergence     Electron number  ETRS Iterations
 RTBSE|            2920     0.65574334E-007     0.10000000E+002                6
 RTBSE| Simulation step         Convergence     Electron number  ETRS Iterations
 RTBSE|            2921     0.40112811E-007     0.10000000E+002                6
 RTBSE| Simulation step         Convergence     Electron number  ETRS Iterations
 RTBSE|            2922     0.33812413E-007     0.10000000E+002                6
 RTBSE| Simulation step         Convergence     Electron number  ETRS Iterations
 RTBSE|            2923     0.40726425E-007     0.10000000E+002                6
 RTBSE| Simulation step         Convergence     Electron number  ETRS Iterations
 RTBSE|            2924     0.45380139E-007     0.10000000E+002                6
 RTBSE| Simulation step         Convergence     Electron number  ETRS Iterations
 RTBSE|            2925     0.48346579E-007     0.10000000E+002                6
 RTBSE| Simulation step         Convergence     Electron number  ETRS Iterations
 RTBSE|            2926     0.50846390E-007     0.10000000E+002                6
 RTBSE| Simulation step         Convergence     Electron number  ETRS Iterations
 RTBSE|            2927     0.54181488E-007     0.10000000E+002                6
 RTBSE| Simulation step         Convergence     Electron number  ETRS Iterations
 RTBSE|            2928     0.59350465E-007     0.10000000E+002                6
 RTBSE| Simulation step         Convergence     Electron number  ETRS Iterations
 RTBSE|            2929     0.67048419E-007     0.10000000E+002                6
 RTBSE| Simulation step         Convergence     Electron number  ETRS Iterations
 RTBSE|            2930     0.77349090E-007     0.10000000E+002                6
 RTBSE| Simulation step         Convergence     Electron number  ETRS Iterations
 RTBSE|            2931     0.89894733E-007     0.10000000E+002                6
 RTBSE| Simulation step         Convergence     Electron number  ETRS Iterations
 RTBSE|            2932     0.16478815E-007     0.10000000E+002                7
 RTBSE| Simulation step         Convergence     Electron number  ETRS Iterations
 RTBSE|            2933     0.18936362E-007     0.10000000E+002                7
 RTBSE| Simulation step         Convergence     Electron number  ETRS Iterations
 RTBSE|            2934     0.21295074E-007     0.10000000E+002                7
 RTBSE| Simulation step         Convergence     Electron number  ETRS Iterations
 RTBSE|            2935     0.23338063E-007     0.10000000E+002                7
 RTBSE| Simulation step         Convergence     Electron number  ETRS Iterations
 RTBSE|            2936     0.24857749E-007     0.10000000E+002                7
 RTBSE| Simulation step         Convergence     Electron number  ETRS Iterations
 RTBSE|            2937     0.25688350E-007     0.10000000E+002                7
 RTBSE| Simulation step         Convergence     Electron number  ETRS Iterations
 RTBSE|            2938     0.25695975E-007     0.10000000E+002                7
 RTBSE| Simulation step         Convergence     Electron number  ETRS Iterations
 RTBSE|            2939     0.24823519E-007     0.10000000E+002                7
 RTBSE| Simulation step         Convergence     Electron number  ETRS Iterations
 RTBSE|            2940     0.23099316E-007     0.10000000E+002                7
 RTBSE| Simulation step         Convergence     Electron number  ETRS Iterations
 RTBSE|            2941     0.20634608E-007     0.10000000E+002                7
 RTBSE| Simulation step         Convergence     Electron number  ETRS Iterations
 RTBSE|            2942     0.17624145E-007     0.10000000E+002                7
 RTBSE| Simulation step         Convergence     Electron number  ETRS Iterations
 RTBSE|            2943     0.15047146E-007     0.10000000E+002                7
 RTBSE| Simulation step         Convergence     Electron number  ETRS Iterations
 RTBSE|            2944     0.99314662E-007     0.10000000E+002                6
 RTBSE| Simulation step         Convergence     Electron number  ETRS Iterations
 RTBSE|            2945     0.86041070E-007     0.10000000E+002                6
 RTBSE| Simulation step         Convergence     Electron number  ETRS Iterations
 RTBSE|            2946     0.73353566E-007     0.10000000E+002                6
 RTBSE| Simulation step         Convergence     Electron number  ETRS Iterations
 RTBSE|            2947     0.61861584E-007     0.10000000E+002                6
 RTBSE| Simulation step         Convergence     Electron number  ETRS Iterations
 RTBSE|            2948     0.51705585E-007     0.10000000E+002                6
 RTBSE| Simulation step         Convergence     Electron number  ETRS Iterations
 RTBSE|            2949     0.42357111E-007     0.10000000E+002                6
 RTBSE| Simulation step         Convergence     Electron number  ETRS Iterations
 RTBSE|            2950     0.44496477E-007     0.10000000E+002                6
 RTBSE| Simulation step         Convergence     Electron number  ETRS Iterations
 RTBSE|            2951     0.58545785E-007     0.10000000E+002                6
 RTBSE| Simulation step         Convergence     Electron number  ETRS Iterations
 RTBSE|            2952     0.77892818E-007     0.10000000E+002                6
 RTBSE| Simulation step         Convergence     Electron number  ETRS Iterations
 RTBSE|            2953     0.15404164E-007     0.10000000E+002                7
 RTBSE| Simulation step         Convergence     Electron number  ETRS Iterations
 RTBSE|            2954     0.21251544E-007     0.10000000E+002                7
 RTBSE| Simulation step         Convergence     Electron number  ETRS Iterations
 RTBSE|            2955     0.28174601E-007     0.10000000E+002                7
 RTBSE| Simulation step         Convergence     Electron number  ETRS Iterations
 RTBSE|            2956     0.35842268E-007     0.10000000E+002                7
 RTBSE| Simulation step         Convergence     Electron number  ETRS Iterations
 RTBSE|            2957     0.43701629E-007     0.10000000E+002                7
 RTBSE| Simulation step         Convergence     Electron number  ETRS Iterations
 RTBSE|            2958     0.51065215E-007     0.10000000E+002                7
 RTBSE| Simulation step         Convergence     Electron number  ETRS Iterations
 RTBSE|            2959     0.57128308E-007     0.10000000E+002                7
 RTBSE| Simulation step         Convergence     Electron number  ETRS Iterations
 RTBSE|            2960     0.61253111E-007     0.10000000E+002                7
 RTBSE| Simulation step         Convergence     Electron number  ETRS Iterations
 RTBSE|            2961     0.62998574E-007     0.10000000E+002                7
 RTBSE| Simulation step         Convergence     Electron number  ETRS Iterations
 RTBSE|            2962     0.62158476E-007     0.10000000E+002                7
 RTBSE| Simulation step         Convergence     Electron number  ETRS Iterations
 RTBSE|            2963     0.58915965E-007     0.10000000E+002                7
 RTBSE| Simulation step         Convergence     Electron number  ETRS Iterations
 RTBSE|            2964     0.53612115E-007     0.10000000E+002                7
 RTBSE| Simulation step         Convergence     Electron number  ETRS Iterations
 RTBSE|            2965     0.46830127E-007     0.10000000E+002                7
 RTBSE| Simulation step         Convergence     Electron number  ETRS Iterations
 RTBSE|            2966     0.39138596E-007     0.10000000E+002                7
 RTBSE| Simulation step         Convergence     Electron number  ETRS Iterations
 RTBSE|            2967     0.31175754E-007     0.10000000E+002                7
 RTBSE| Simulation step         Convergence     Electron number  ETRS Iterations
 RTBSE|            2968     0.23464871E-007     0.10000000E+002                7
 RTBSE| Simulation step         Convergence     Electron number  ETRS Iterations
 RTBSE|            2969     0.18104872E-007     0.10000000E+002                7
 RTBSE| Simulation step         Convergence     Electron number  ETRS Iterations
 RTBSE|            2970     0.14127286E-007     0.10000000E+002                7
 RTBSE| Simulation step         Convergence     Electron number  ETRS Iterations
 RTBSE|            2971     0.79156391E-007     0.10000000E+002                6
 RTBSE| Simulation step         Convergence     Electron number  ETRS Iterations
 RTBSE|            2972     0.53359596E-007     0.10000000E+002                6
 RTBSE| Simulation step         Convergence     Electron number  ETRS Iterations
 RTBSE|            2973     0.33042497E-007     0.10000000E+002                6
 RTBSE| Simulation step         Convergence     Electron number  ETRS Iterations
 RTBSE|            2974     0.29643648E-007     0.10000000E+002                6
 RTBSE| Simulation step         Convergence     Electron number  ETRS Iterations
 RTBSE|            2975     0.34414682E-007     0.10000000E+002                6
 RTBSE| Simulation step         Convergence     Electron number  ETRS Iterations
 RTBSE|            2976     0.38049612E-007     0.10000000E+002                6
 RTBSE| Simulation step         Convergence     Electron number  ETRS Iterations
 RTBSE|            2977     0.41385857E-007     0.10000000E+002                6
 RTBSE| Simulation step         Convergence     Electron number  ETRS Iterations
 RTBSE|            2978     0.45577952E-007     0.10000000E+002                6
 RTBSE| Simulation step         Convergence     Electron number  ETRS Iterations
 RTBSE|            2979     0.51547795E-007     0.10000000E+002                6
 RTBSE| Simulation step         Convergence     Electron number  ETRS Iterations
 RTBSE|            2980     0.59923194E-007     0.10000000E+002                6
 RTBSE| Simulation step         Convergence     Electron number  ETRS Iterations
 RTBSE|            2981     0.70813690E-007     0.10000000E+002                6
 RTBSE| Simulation step         Convergence     Electron number  ETRS Iterations
 RTBSE|            2982     0.83900974E-007     0.10000000E+002                6
 RTBSE| Simulation step         Convergence     Electron number  ETRS Iterations
 RTBSE|            2983     0.98461081E-007     0.10000000E+002                6
 RTBSE| Simulation step         Convergence     Electron number  ETRS Iterations
 RTBSE|            2984     0.17973453E-007     0.10000000E+002                7
 RTBSE| Simulation step         Convergence     Electron number  ETRS Iterations
 RTBSE|            2985     0.20458489E-007     0.10000000E+002                7
 RTBSE| Simulation step         Convergence     Electron number  ETRS Iterations
 RTBSE|            2986     0.22672947E-007     0.10000000E+002                7
 RTBSE| Simulation step         Convergence     Electron number  ETRS Iterations
 RTBSE|            2987     0.24377175E-007     0.10000000E+002                7
 RTBSE| Simulation step         Convergence     Electron number  ETRS Iterations
 RTBSE|            2988     0.25435919E-007     0.10000000E+002                7
 RTBSE| Simulation step         Convergence     Electron number  ETRS Iterations
 RTBSE|            2989     0.25718033E-007     0.10000000E+002                7
 RTBSE| Simulation step         Convergence     Electron number  ETRS Iterations
 RTBSE|            2990     0.25167510E-007     0.10000000E+002                7
 RTBSE| Simulation step         Convergence     Electron number  ETRS Iterations
 RTBSE|            2991     0.23842955E-007     0.10000000E+002                7
 RTBSE| Simulation step         Convergence     Electron number  ETRS Iterations
 RTBSE|            2992     0.21830292E-007     0.10000000E+002                7
 RTBSE| Simulation step         Convergence     Electron number  ETRS Iterations
 RTBSE|            2993     0.19325850E-007     0.10000000E+002                7
 RTBSE| Simulation step         Convergence     Electron number  ETRS Iterations
 RTBSE|            2994     0.16576288E-007     0.10000000E+002                7
 RTBSE| Simulation step         Convergence     Electron number  ETRS Iterations
 RTBSE|            2995     0.14429307E-007     0.10000000E+002                7
 RTBSE| Simulation step         Convergence     Electron number  ETRS Iterations
 RTBSE|            2996     0.99950773E-007     0.10000000E+002                6
 RTBSE| Simulation step         Convergence     Electron number  ETRS Iterations
 RTBSE|            2997     0.91307273E-007     0.10000000E+002                6
 RTBSE| Simulation step         Convergence     Electron number  ETRS Iterations
 RTBSE|            2998     0.83549740E-007     0.10000000E+002                6
 RTBSE| Simulation step         Convergence     Electron number  ETRS Iterations
 RTBSE|            2999     0.76230355E-007     0.10000000E+002                6
 RTBSE| Simulation step         Convergence     Electron number  ETRS Iterations
 RTBSE|            3000     0.68372876E-007     0.10000000E+002                6
 RTBSE| Simulation step         Convergence     Electron number  ETRS Iterations
 RTBSE|            3001     0.58474563E-007     0.10000000E+002                6
 RTBSE| Simulation step         Convergence     Electron number  ETRS Iterations
 RTBSE|            3002     0.46461327E-007     0.10000000E+002                6
 RTBSE| Simulation step         Convergence     Electron number  ETRS Iterations
 RTBSE|            3003     0.67089954E-007     0.10000000E+002                6
 RTBSE| Simulation step         Convergence     Electron number  ETRS Iterations
 RTBSE|            3004     0.95734439E-007     0.10000000E+002                6
 RTBSE| Simulation step         Convergence     Electron number  ETRS Iterations
 RTBSE|            3005     0.20343807E-007     0.10000000E+002                7
 RTBSE| Simulation step         Convergence     Electron number  ETRS Iterations
 RTBSE|            3006     0.28008574E-007     0.10000000E+002                7
 RTBSE| Simulation step         Convergence     Electron number  ETRS Iterations
 RTBSE|            3007     0.36181207E-007     0.10000000E+002                7
 RTBSE| Simulation step         Convergence     Electron number  ETRS Iterations
 RTBSE|            3008     0.44264204E-007     0.10000000E+002                7
 RTBSE| Simulation step         Convergence     Electron number  ETRS Iterations
 RTBSE|            3009     0.51613321E-007     0.10000000E+002                7
 RTBSE| Simulation step         Convergence     Electron number  ETRS Iterations
 RTBSE|            3010     0.57514442E-007     0.10000000E+002                7
 RTBSE| Simulation step         Convergence     Electron number  ETRS Iterations
 RTBSE|            3011     0.61446508E-007     0.10000000E+002                7
 RTBSE| Simulation step         Convergence     Electron number  ETRS Iterations
 RTBSE|            3012     0.63056998E-007     0.10000000E+002                7
 RTBSE| Simulation step         Convergence     Electron number  ETRS Iterations
 RTBSE|            3013     0.62236600E-007     0.10000000E+002                7
 RTBSE| Simulation step         Convergence     Electron number  ETRS Iterations
 RTBSE|            3014     0.59186035E-007     0.10000000E+002                7
 RTBSE| Simulation step         Convergence     Electron number  ETRS Iterations
 RTBSE|            3015     0.54256493E-007     0.10000000E+002                7
 RTBSE| Simulation step         Convergence     Electron number  ETRS Iterations
 RTBSE|            3016     0.47943074E-007     0.10000000E+002                7
 RTBSE| Simulation step         Convergence     Electron number  ETRS Iterations
 RTBSE|            3017     0.40794699E-007     0.10000000E+002                7
 RTBSE| Simulation step         Convergence     Electron number  ETRS Iterations
 RTBSE|            3018     0.33352318E-007     0.10000000E+002                7
 RTBSE| Simulation step         Convergence     Electron number  ETRS Iterations
 RTBSE|            3019     0.26109634E-007     0.10000000E+002                7
 RTBSE| Simulation step         Convergence     Electron number  ETRS Iterations
 RTBSE|            3020     0.19467654E-007     0.10000000E+002                7
 RTBSE| Simulation step         Convergence     Electron number  ETRS Iterations
 RTBSE|            3021     0.15508344E-007     0.10000000E+002                7
 RTBSE| Simulation step         Convergence     Electron number  ETRS Iterations
 RTBSE|            3022     0.95367248E-007     0.10000000E+002                6
 RTBSE| Simulation step         Convergence     Electron number  ETRS Iterations
 RTBSE|            3023     0.71694810E-007     0.10000000E+002                6
 RTBSE| Simulation step         Convergence     Electron number  ETRS Iterations
 RTBSE|            3024     0.53001708E-007     0.10000000E+002                6
 RTBSE| Simulation step         Convergence     Electron number  ETRS Iterations
 RTBSE|            3025     0.38771452E-007     0.10000000E+002                6
 RTBSE| Simulation step         Convergence     Electron number  ETRS Iterations
 RTBSE|            3026     0.28078567E-007     0.10000000E+002                6
 RTBSE| Simulation step         Convergence     Electron number  ETRS Iterations
 RTBSE|            3027     0.23422499E-007     0.10000000E+002                6
 RTBSE| Simulation step         Convergence     Electron number  ETRS Iterations
 RTBSE|            3028     0.28550384E-007     0.10000000E+002                6
 RTBSE| Simulation step         Convergence     Electron number  ETRS Iterations
 RTBSE|            3029     0.35560371E-007     0.10000000E+002                6
 RTBSE| Simulation step         Convergence     Electron number  ETRS Iterations
 RTBSE|            3030     0.44803914E-007     0.10000000E+002                6
 RTBSE| Simulation step         Convergence     Electron number  ETRS Iterations
 RTBSE|            3031     0.56426206E-007     0.10000000E+002                6
 RTBSE| Simulation step         Convergence     Electron number  ETRS Iterations
 RTBSE|            3032     0.70124903E-007     0.10000000E+002                6
 RTBSE| Simulation step         Convergence     Electron number  ETRS Iterations
 RTBSE|            3033     0.85344048E-007     0.10000000E+002                6
 RTBSE| Simulation step         Convergence     Electron number  ETRS Iterations
 RTBSE|            3034     0.15659426E-007     0.10000000E+002                7
 RTBSE| Simulation step         Convergence     Electron number  ETRS Iterations
 RTBSE|            3035     0.18328348E-007     0.10000000E+002                7
 RTBSE| Simulation step         Convergence     Electron number  ETRS Iterations
 RTBSE|            3036     0.20764254E-007     0.10000000E+002                7
 RTBSE| Simulation step         Convergence     Electron number  ETRS Iterations
 RTBSE|            3037     0.22800420E-007     0.10000000E+002                7
 RTBSE| Simulation step         Convergence     Electron number  ETRS Iterations
 RTBSE|            3038     0.24285117E-007     0.10000000E+002                7
 RTBSE| Simulation step         Convergence     Electron number  ETRS Iterations
 RTBSE|            3039     0.25128187E-007     0.10000000E+002                7
 RTBSE| Simulation step         Convergence     Electron number  ETRS Iterations
 RTBSE|            3040     0.25245341E-007     0.10000000E+002                7
 RTBSE| Simulation step         Convergence     Electron number  ETRS Iterations
 RTBSE|            3041     0.24684555E-007     0.10000000E+002                7
 RTBSE| Simulation step         Convergence     Electron number  ETRS Iterations
 RTBSE|            3042     0.23524010E-007     0.10000000E+002                7
 RTBSE| Simulation step         Convergence     Electron number  ETRS Iterations
 RTBSE|            3043     0.21908335E-007     0.10000000E+002                7
 RTBSE| Simulation step         Convergence     Electron number  ETRS Iterations
 RTBSE|            3044     0.20026203E-007     0.10000000E+002                7
 RTBSE| Simulation step         Convergence     Electron number  ETRS Iterations
 RTBSE|            3045     0.18020797E-007     0.10000000E+002                7
 RTBSE| Simulation step         Convergence     Electron number  ETRS Iterations
 RTBSE|            3046     0.16040920E-007     0.10000000E+002                7
 RTBSE| Simulation step         Convergence     Electron number  ETRS Iterations
 RTBSE|            3047     0.14431845E-007     0.10000000E+002                7
 RTBSE| Simulation step         Convergence     Electron number  ETRS Iterations
 RTBSE|            3048     0.13385357E-007     0.10000000E+002                7
 RTBSE| Simulation step         Convergence     Electron number  ETRS Iterations
 RTBSE|            3049     0.12400445E-007     0.10000000E+002                7
 RTBSE| Simulation step         Convergence     Electron number  ETRS Iterations
 RTBSE|            3050     0.96724909E-007     0.10000000E+002                6
 RTBSE| Simulation step         Convergence     Electron number  ETRS Iterations
 RTBSE|            3051     0.89120641E-007     0.10000000E+002                6
 RTBSE| Simulation step         Convergence     Electron number  ETRS Iterations
 RTBSE|            3052     0.77974653E-007     0.10000000E+002                6
 RTBSE| Simulation step         Convergence     Electron number  ETRS Iterations
 RTBSE|            3053     0.61828109E-007     0.10000000E+002                6
 RTBSE| Simulation step         Convergence     Electron number  ETRS Iterations
 RTBSE|            3054     0.59087251E-007     0.10000000E+002                6
 RTBSE| Simulation step         Convergence     Electron number  ETRS Iterations
 RTBSE|            3055     0.88394047E-007     0.10000000E+002                6
 RTBSE| Simulation step         Convergence     Electron number  ETRS Iterations
 RTBSE|            3056     0.19229859E-007     0.10000000E+002                7
 RTBSE| Simulation step         Convergence     Electron number  ETRS Iterations
 RTBSE|            3057     0.27180273E-007     0.10000000E+002                7
 RTBSE| Simulation step         Convergence     Electron number  ETRS Iterations
 RTBSE|            3058     0.35474853E-007     0.10000000E+002                7
 RTBSE| Simulation step         Convergence     Electron number  ETRS Iterations
 RTBSE|            3059     0.43546968E-007     0.10000000E+002                7
 RTBSE| Simulation step         Convergence     Electron number  ETRS Iterations
 RTBSE|            3060     0.50779833E-007     0.10000000E+002                7
 RTBSE| Simulation step         Convergence     Electron number  ETRS Iterations
 RTBSE|            3061     0.56554265E-007     0.10000000E+002                7
 RTBSE| Simulation step         Convergence     Electron number  ETRS Iterations
 RTBSE|            3062     0.60386773E-007     0.10000000E+002                7
 RTBSE| Simulation step         Convergence     Electron number  ETRS Iterations
 RTBSE|            3063     0.61999648E-007     0.10000000E+002                7
 RTBSE| Simulation step         Convergence     Electron number  ETRS Iterations
 RTBSE|            3064     0.61348632E-007     0.10000000E+002                7
 RTBSE| Simulation step         Convergence     Electron number  ETRS Iterations
 RTBSE|            3065     0.58584113E-007     0.10000000E+002                7
 RTBSE| Simulation step         Convergence     Electron number  ETRS Iterations
 RTBSE|            3066     0.54074507E-007     0.10000000E+002                7
 RTBSE| Simulation step         Convergence     Electron number  ETRS Iterations
 RTBSE|            3067     0.48302320E-007     0.10000000E+002                7
 RTBSE| Simulation step         Convergence     Electron number  ETRS Iterations
 RTBSE|            3068     0.41803917E-007     0.10000000E+002                7
 RTBSE| Simulation step         Convergence     Electron number  ETRS Iterations
 RTBSE|            3069     0.35070336E-007     0.10000000E+002                7
 RTBSE| Simulation step         Convergence     Electron number  ETRS Iterations
 RTBSE|            3070     0.28593807E-007     0.10000000E+002                7
 RTBSE| Simulation step         Convergence     Electron number  ETRS Iterations
 RTBSE|            3071     0.22726771E-007     0.10000000E+002                7
 RTBSE| Simulation step         Convergence     Electron number  ETRS Iterations
 RTBSE|            3072     0.17659179E-007     0.10000000E+002                7
 RTBSE| Simulation step         Convergence     Electron number  ETRS Iterations
 RTBSE|            3073     0.14558816E-007     0.10000000E+002                7
 RTBSE| Simulation step         Convergence     Electron number  ETRS Iterations
 RTBSE|            3074     0.95506472E-007     0.10000000E+002                6
 RTBSE| Simulation step         Convergence     Electron number  ETRS Iterations
 RTBSE|            3075     0.78883237E-007     0.10000000E+002                6
 RTBSE| Simulation step         Convergence     Electron number  ETRS Iterations
 RTBSE|            3076     0.64987230E-007     0.10000000E+002                6
 RTBSE| Simulation step         Convergence     Electron number  ETRS Iterations
 RTBSE|            3077     0.53447252E-007     0.10000000E+002                6
 RTBSE| Simulation step         Convergence     Electron number  ETRS Iterations
 RTBSE|            3078     0.42584451E-007     0.10000000E+002                6
 RTBSE| Simulation step         Convergence     Electron number  ETRS Iterations
 RTBSE|            3079     0.31051980E-007     0.10000000E+002                6
 RTBSE| Simulation step         Convergence     Electron number  ETRS Iterations
 RTBSE|            3080     0.30717952E-007     0.10000000E+002                6
 RTBSE| Simulation step         Convergence     Electron number  ETRS Iterations
 RTBSE|            3081     0.43141544E-007     0.10000000E+002                6
 RTBSE| Simulation step         Convergence     Electron number  ETRS Iterations
 RTBSE|            3082     0.57842833E-007     0.10000000E+002                6
 RTBSE| Simulation step         Convergence     Electron number  ETRS Iterations
 RTBSE|            3083     0.73759718E-007     0.10000000E+002                6
 RTBSE| Simulation step         Convergence     Electron number  ETRS Iterations
 RTBSE|            3084     0.89882578E-007     0.10000000E+002                6
 RTBSE| Simulation step         Convergence     Electron number  ETRS Iterations
 RTBSE|            3085     0.16239920E-007     0.10000000E+002                7
 RTBSE| Simulation step         Convergence     Electron number  ETRS Iterations
 RTBSE|            3086     0.18708630E-007     0.10000000E+002                7
 RTBSE| Simulation step         Convergence     Electron number  ETRS Iterations
 RTBSE|            3087     0.20829397E-007     0.10000000E+002                7
 RTBSE| Simulation step         Convergence     Electron number  ETRS Iterations
 RTBSE|            3088     0.22485677E-007     0.10000000E+002                7
 RTBSE| Simulation step         Convergence     Electron number  ETRS Iterations
 RTBSE|            3089     0.23614150E-007     0.10000000E+002                7
 RTBSE| Simulation step         Convergence     Electron number  ETRS Iterations
 RTBSE|            3090     0.24200938E-007     0.10000000E+002                7
 RTBSE| Simulation step         Convergence     Electron number  ETRS Iterations
 RTBSE|            3091     0.24232494E-007     0.10000000E+002                7
 RTBSE| Simulation step         Convergence     Electron number  ETRS Iterations
 RTBSE|            3092     0.23769452E-007     0.10000000E+002                7
 RTBSE| Simulation step         Convergence     Electron number  ETRS Iterations
 RTBSE|            3093     0.22905252E-007     0.10000000E+002                7
 RTBSE| Simulation step         Convergence     Electron number  ETRS Iterations
 RTBSE|            3094     0.21733024E-007     0.10000000E+002                7
 RTBSE| Simulation step         Convergence     Electron number  ETRS Iterations
 RTBSE|            3095     0.20390685E-007     0.10000000E+002                7
 RTBSE| Simulation step         Convergence     Electron number  ETRS Iterations
 RTBSE|            3096     0.18960349E-007     0.10000000E+002                7
 RTBSE| Simulation step         Convergence     Electron number  ETRS Iterations
 RTBSE|            3097     0.17505279E-007     0.10000000E+002                7
 RTBSE| Simulation step         Convergence     Electron number  ETRS Iterations
 RTBSE|            3098     0.16043235E-007     0.10000000E+002                7
 RTBSE| Simulation step         Convergence     Electron number  ETRS Iterations
 RTBSE|            3099     0.14621412E-007     0.10000000E+002                7
 RTBSE| Simulation step         Convergence     Electron number  ETRS Iterations
 RTBSE|            3100     0.13811319E-007     0.10000000E+002                7
 RTBSE| Simulation step         Convergence     Electron number  ETRS Iterations
 RTBSE|            3101     0.12885797E-007     0.10000000E+002                7
 RTBSE| Simulation step         Convergence     Electron number  ETRS Iterations
 RTBSE|            3102     0.12275717E-007     0.10000000E+002                7
 RTBSE| Simulation step         Convergence     Electron number  ETRS Iterations
 RTBSE|            3103     0.91360431E-007     0.10000000E+002                6
 RTBSE| Simulation step         Convergence     Electron number  ETRS Iterations
 RTBSE|            3104     0.76295600E-007     0.10000000E+002                6
 RTBSE| Simulation step         Convergence     Electron number  ETRS Iterations
 RTBSE|            3105     0.55074808E-007     0.10000000E+002                6
 RTBSE| Simulation step         Convergence     Electron number  ETRS Iterations
 RTBSE|            3106     0.73904921E-007     0.10000000E+002                6
 RTBSE| Simulation step         Convergence     Electron number  ETRS Iterations
 RTBSE|            3107     0.16275449E-007     0.10000000E+002                7
 RTBSE| Simulation step         Convergence     Electron number  ETRS Iterations
 RTBSE|            3108     0.24335414E-007     0.10000000E+002                7
 RTBSE| Simulation step         Convergence     Electron number  ETRS Iterations
 RTBSE|            3109     0.32781881E-007     0.10000000E+002                7
 RTBSE| Simulation step         Convergence     Electron number  ETRS Iterations
 RTBSE|            3110     0.41017646E-007     0.10000000E+002                7
 RTBSE| Simulation step         Convergence     Electron number  ETRS Iterations
 RTBSE|            3111     0.48409218E-007     0.10000000E+002                7
 RTBSE| Simulation step         Convergence     Electron number  ETRS Iterations
 RTBSE|            3112     0.54336135E-007     0.10000000E+002                7
 RTBSE| Simulation step         Convergence     Electron number  ETRS Iterations
 RTBSE|            3113     0.58343123E-007     0.10000000E+002                7
 RTBSE| Simulation step         Convergence     Electron number  ETRS Iterations
 RTBSE|            3114     0.60173933E-007     0.10000000E+002                7
 RTBSE| Simulation step         Convergence     Electron number  ETRS Iterations
 RTBSE|            3115     0.59802360E-007     0.10000000E+002                7
 RTBSE| Simulation step         Convergence     Electron number  ETRS Iterations
 RTBSE|            3116     0.57471165E-007     0.10000000E+002                7
 RTBSE| Simulation step         Convergence     Electron number  ETRS Iterations
 RTBSE|            3117     0.53600477E-007     0.10000000E+002                7
 RTBSE| Simulation step         Convergence     Electron number  ETRS Iterations
 RTBSE|            3118     0.48645014E-007     0.10000000E+002                7
 RTBSE| Simulation step         Convergence     Electron number  ETRS Iterations
 RTBSE|            3119     0.43122600E-007     0.10000000E+002                7
 RTBSE| Simulation step         Convergence     Electron number  ETRS Iterations
 RTBSE|            3120     0.37480937E-007     0.10000000E+002                7
 RTBSE| Simulation step         Convergence     Electron number  ETRS Iterations
 RTBSE|            3121     0.32054828E-007     0.10000000E+002                7
 RTBSE| Simulation step         Convergence     Electron number  ETRS Iterations
 RTBSE|            3122     0.27105554E-007     0.10000000E+002                7
 RTBSE| Simulation step         Convergence     Electron number  ETRS Iterations
 RTBSE|            3123     0.22685264E-007     0.10000000E+002                7
 RTBSE| Simulation step         Convergence     Electron number  ETRS Iterations
 RTBSE|            3124     0.18789500E-007     0.10000000E+002                7
 RTBSE| Simulation step         Convergence     Electron number  ETRS Iterations
 RTBSE|            3125     0.15778435E-007     0.10000000E+002                7
 RTBSE| Simulation step         Convergence     Electron number  ETRS Iterations
 RTBSE|            3126     0.14067447E-007     0.10000000E+002                7
 RTBSE| Simulation step         Convergence     Electron number  ETRS Iterations
 RTBSE|            3127     0.90489079E-007     0.10000000E+002                6
 RTBSE| Simulation step         Convergence     Electron number  ETRS Iterations
 RTBSE|            3128     0.76358575E-007     0.10000000E+002                6
 RTBSE| Simulation step         Convergence     Electron number  ETRS Iterations
 RTBSE|            3129     0.61432362E-007     0.10000000E+002                6
 RTBSE| Simulation step         Convergence     Electron number  ETRS Iterations
 RTBSE|            3130     0.45404723E-007     0.10000000E+002                6
 RTBSE| Simulation step         Convergence     Electron number  ETRS Iterations
 RTBSE|            3131     0.28810254E-007     0.10000000E+002                6
 RTBSE| Simulation step         Convergence     Electron number  ETRS Iterations
 RTBSE|            3132     0.42237390E-007     0.10000000E+002                6
 RTBSE| Simulation step         Convergence     Electron number  ETRS Iterations
 RTBSE|            3133     0.58527480E-007     0.10000000E+002                6
 RTBSE| Simulation step         Convergence     Electron number  ETRS Iterations
 RTBSE|            3134     0.75393430E-007     0.10000000E+002                6
 RTBSE| Simulation step         Convergence     Electron number  ETRS Iterations
 RTBSE|            3135     0.91776025E-007     0.10000000E+002                6
 RTBSE| Simulation step         Convergence     Electron number  ETRS Iterations
 RTBSE|            3136     0.16353769E-007     0.10000000E+002                7
 RTBSE| Simulation step         Convergence     Electron number  ETRS Iterations
 RTBSE|            3137     0.18706106E-007     0.10000000E+002                7
 RTBSE| Simulation step         Convergence     Electron number  ETRS Iterations
 RTBSE|            3138     0.20680602E-007     0.10000000E+002                7
 RTBSE| Simulation step         Convergence     Electron number  ETRS Iterations
 RTBSE|            3139     0.22179653E-007     0.10000000E+002                7
 RTBSE| Simulation step         Convergence     Electron number  ETRS Iterations
 RTBSE|            3140     0.23190412E-007     0.10000000E+002                7
 RTBSE| Simulation step         Convergence     Electron number  ETRS Iterations
 RTBSE|            3141     0.23651872E-007     0.10000000E+002                7
 RTBSE| Simulation step         Convergence     Electron number  ETRS Iterations
 RTBSE|            3142     0.23614229E-007     0.10000000E+002                7
 RTBSE| Simulation step         Convergence     Electron number  ETRS Iterations
 RTBSE|            3143     0.23115385E-007     0.10000000E+002                7
 RTBSE| Simulation step         Convergence     Electron number  ETRS Iterations
 RTBSE|            3144     0.22251209E-007     0.10000000E+002                7
 RTBSE| Simulation step         Convergence     Electron number  ETRS Iterations
 RTBSE|            3145     0.21136519E-007     0.10000000E+002                7
 RTBSE| Simulation step         Convergence     Electron number  ETRS Iterations
 RTBSE|            3146     0.19889906E-007     0.10000000E+002                7
 RTBSE| Simulation step         Convergence     Electron number  ETRS Iterations
 RTBSE|            3147     0.18634233E-007     0.10000000E+002                7
 RTBSE| Simulation step         Convergence     Electron number  ETRS Iterations
 RTBSE|            3148     0.17443676E-007     0.10000000E+002                7
 RTBSE| Simulation step         Convergence     Electron number  ETRS Iterations
 RTBSE|            3149     0.16326698E-007     0.10000000E+002                7
 RTBSE| Simulation step         Convergence     Electron number  ETRS Iterations
 RTBSE|            3150     0.15292512E-007     0.10000000E+002                7
 RTBSE| Simulation step         Convergence     Electron number  ETRS Iterations
 RTBSE|            3151     0.14218270E-007     0.10000000E+002                7
 RTBSE| Simulation step         Convergence     Electron number  ETRS Iterations
 RTBSE|            3152     0.13685145E-007     0.10000000E+002                7
 RTBSE| Simulation step         Convergence     Electron number  ETRS Iterations
 RTBSE|            3153     0.13144265E-007     0.10000000E+002                7
 RTBSE| Simulation step         Convergence     Electron number  ETRS Iterations
 RTBSE|            3154     0.12830322E-007     0.10000000E+002                7
 RTBSE| Simulation step         Convergence     Electron number  ETRS Iterations
 RTBSE|            3155     0.94264479E-007     0.10000000E+002                6
 RTBSE| Simulation step         Convergence     Electron number  ETRS Iterations
 RTBSE|            3156     0.76051523E-007     0.10000000E+002                6
 RTBSE| Simulation step         Convergence     Electron number  ETRS Iterations
 RTBSE|            3157     0.56319821E-007     0.10000000E+002                6
 RTBSE| Simulation step         Convergence     Electron number  ETRS Iterations
 RTBSE|            3158     0.88939436E-007     0.10000000E+002                6
 RTBSE| Simulation step         Convergence     Electron number  ETRS Iterations
 RTBSE|            3159     0.20380697E-007     0.10000000E+002                7
 RTBSE| Simulation step         Convergence     Electron number  ETRS Iterations
 RTBSE|            3160     0.29157695E-007     0.10000000E+002                7
 RTBSE| Simulation step         Convergence     Electron number  ETRS Iterations
 RTBSE|            3161     0.37752114E-007     0.10000000E+002                7
 RTBSE| Simulation step         Convergence     Electron number  ETRS Iterations
 RTBSE|            3162     0.45501446E-007     0.10000000E+002                7
 RTBSE| Simulation step         Convergence     Electron number  ETRS Iterations
 RTBSE|            3163     0.51732538E-007     0.10000000E+002                7
 RTBSE| Simulation step         Convergence     Electron number  ETRS Iterations
 RTBSE|            3164     0.56026490E-007     0.10000000E+002                7
 RTBSE| Simulation step         Convergence     Electron number  ETRS Iterations
 RTBSE|            3165     0.58221054E-007     0.10000000E+002                7
 RTBSE| Simulation step         Convergence     Electron number  ETRS Iterations
 RTBSE|            3166     0.58365963E-007     0.10000000E+002                7
 RTBSE| Simulation step         Convergence     Electron number  ETRS Iterations
 RTBSE|            3167     0.56710448E-007     0.10000000E+002                7
 RTBSE| Simulation step         Convergence     Electron number  ETRS Iterations
 RTBSE|            3168     0.53677824E-007     0.10000000E+002                7
 RTBSE| Simulation step         Convergence     Electron number  ETRS Iterations
 RTBSE|            3169     0.49690741E-007     0.10000000E+002                7
 RTBSE| Simulation step         Convergence     Electron number  ETRS Iterations
 RTBSE|            3170     0.45159329E-007     0.10000000E+002                7
 RTBSE| Simulation step         Convergence     Electron number  ETRS Iterations
 RTBSE|            3171     0.40435266E-007     0.10000000E+002                7
 RTBSE| Simulation step         Convergence     Electron number  ETRS Iterations
 RTBSE|            3172     0.35721880E-007     0.10000000E+002                7
 RTBSE| Simulation step         Convergence     Electron number  ETRS Iterations
 RTBSE|            3173     0.31206128E-007     0.10000000E+002                7
 RTBSE| Simulation step         Convergence     Electron number  ETRS Iterations
 RTBSE|            3174     0.26952201E-007     0.10000000E+002                7
 RTBSE| Simulation step         Convergence     Electron number  ETRS Iterations
 RTBSE|            3175     0.22963814E-007     0.10000000E+002                7
 RTBSE| Simulation step         Convergence     Electron number  ETRS Iterations
 RTBSE|            3176     0.19206755E-007     0.10000000E+002                7
 RTBSE| Simulation step         Convergence     Electron number  ETRS Iterations
 RTBSE|            3177     0.16359627E-007     0.10000000E+002                7
 RTBSE| Simulation step         Convergence     Electron number  ETRS Iterations
 RTBSE|            3178     0.14483344E-007     0.10000000E+002                7
 RTBSE| Simulation step         Convergence     Electron number  ETRS Iterations
 RTBSE|            3179     0.91331567E-007     0.10000000E+002                6
 RTBSE| Simulation step         Convergence     Electron number  ETRS Iterations
 RTBSE|            3180     0.74814040E-007     0.10000000E+002                6
 RTBSE| Simulation step         Convergence     Electron number  ETRS Iterations
 RTBSE|            3181     0.57129085E-007     0.10000000E+002                6
 RTBSE| Simulation step         Convergence     Electron number  ETRS Iterations
 RTBSE|            3182     0.38307010E-007     0.10000000E+002                6
 RTBSE| Simulation step         Convergence     Electron number  ETRS Iterations
 RTBSE|            3183     0.38705965E-007     0.10000000E+002                6
 RTBSE| Simulation step         Convergence     Electron number  ETRS Iterations
 RTBSE|            3184     0.55933065E-007     0.10000000E+002                6
 RTBSE| Simulation step         Convergence     Electron number  ETRS Iterations
 RTBSE|            3185     0.74140917E-007     0.10000000E+002                6
 RTBSE| Simulation step         Convergence     Electron number  ETRS Iterations
 RTBSE|            3186     0.91681118E-007     0.10000000E+002                6
 RTBSE| Simulation step         Convergence     Electron number  ETRS Iterations
 RTBSE|            3187     0.16341778E-007     0.10000000E+002                7
 RTBSE| Simulation step         Convergence     Electron number  ETRS Iterations
 RTBSE|            3188     0.18791415E-007     0.10000000E+002                7
 RTBSE| Simulation step         Convergence     Electron number  ETRS Iterations
 RTBSE|            3189     0.20726253E-007     0.10000000E+002                7
 RTBSE| Simulation step         Convergence     Electron number  ETRS Iterations
 RTBSE|            3190     0.22090020E-007     0.10000000E+002                7
 RTBSE| Simulation step         Convergence     Electron number  ETRS Iterations
 RTBSE|            3191     0.22842760E-007     0.10000000E+002                7
 RTBSE| Simulation step         Convergence     Electron number  ETRS Iterations
 RTBSE|            3192     0.22993282E-007     0.10000000E+002                7
 RTBSE| Simulation step         Convergence     Electron number  ETRS Iterations
 RTBSE|            3193     0.22581100E-007     0.10000000E+002                7
 RTBSE| Simulation step         Convergence     Electron number  ETRS Iterations
 RTBSE|            3194     0.21744555E-007     0.10000000E+002                7
 RTBSE| Simulation step         Convergence     Electron number  ETRS Iterations
 RTBSE|            3195     0.20604975E-007     0.10000000E+002                7
 RTBSE| Simulation step         Convergence     Electron number  ETRS Iterations
 RTBSE|            3196     0.19345698E-007     0.10000000E+002                7
 RTBSE| Simulation step         Convergence     Electron number  ETRS Iterations
 RTBSE|            3197     0.18158352E-007     0.10000000E+002                7
 RTBSE| Simulation step         Convergence     Electron number  ETRS Iterations
 RTBSE|            3198     0.17168193E-007     0.10000000E+002                7
 RTBSE| Simulation step         Convergence     Electron number  ETRS Iterations
 RTBSE|            3199     0.16482885E-007     0.10000000E+002                7
 RTBSE| Simulation step         Convergence     Electron number  ETRS Iterations
 RTBSE|            3200     0.16071705E-007     0.10000000E+002                7
 RTBSE| Simulation step         Convergence     Electron number  ETRS Iterations
 RTBSE|            3201     0.15845103E-007     0.10000000E+002                7
 RTBSE| Simulation step         Convergence     Electron number  ETRS Iterations
 RTBSE|            3202     0.15647485E-007     0.10000000E+002                7
 RTBSE| Simulation step         Convergence     Electron number  ETRS Iterations
 RTBSE|            3203     0.15241433E-007     0.10000000E+002                7
 RTBSE| Simulation step         Convergence     Electron number  ETRS Iterations
 RTBSE|            3204     0.14632824E-007     0.10000000E+002                7
 RTBSE| Simulation step         Convergence     Electron number  ETRS Iterations
 RTBSE|            3205     0.14411154E-007     0.10000000E+002                7
 RTBSE| Simulation step         Convergence     Electron number  ETRS Iterations
 RTBSE|            3206     0.13931308E-007     0.10000000E+002                7
 RTBSE| Simulation step         Convergence     Electron number  ETRS Iterations
 RTBSE|            3207     0.98897116E-007     0.10000000E+002                6
 RTBSE| Simulation step         Convergence     Electron number  ETRS Iterations
 RTBSE|            3208     0.74595615E-007     0.10000000E+002                6
 RTBSE| Simulation step         Convergence     Electron number  ETRS Iterations
 RTBSE|            3209     0.67750656E-007     0.10000000E+002                6
 RTBSE| Simulation step         Convergence     Electron number  ETRS Iterations
 RTBSE|            3210     0.15701742E-007     0.10000000E+002                7
 RTBSE| Simulation step         Convergence     Electron number  ETRS Iterations
 RTBSE|            3211     0.24784555E-007     0.10000000E+002                7
 RTBSE| Simulation step         Convergence     Electron number  ETRS Iterations
 RTBSE|            3212     0.33807996E-007     0.10000000E+002                7
 RTBSE| Simulation step         Convergence     Electron number  ETRS Iterations
 RTBSE|            3213     0.42051118E-007     0.10000000E+002                7
 RTBSE| Simulation step         Convergence     Electron number  ETRS Iterations
 RTBSE|            3214     0.48859977E-007     0.10000000E+002                7
 RTBSE| Simulation step         Convergence     Electron number  ETRS Iterations
 RTBSE|            3215     0.53824587E-007     0.10000000E+002                7
 RTBSE| Simulation step         Convergence     Electron number  ETRS Iterations
 RTBSE|            3216     0.56692814E-007     0.10000000E+002                7
 RTBSE| Simulation step         Convergence     Electron number  ETRS Iterations
 RTBSE|            3217     0.57533195E-007     0.10000000E+002                7
 RTBSE| Simulation step         Convergence     Electron number  ETRS Iterations
 RTBSE|            3218     0.56556372E-007     0.10000000E+002                7
 RTBSE| Simulation step         Convergence     Electron number  ETRS Iterations
 RTBSE|            3219     0.54113303E-007     0.10000000E+002                7
 RTBSE| Simulation step         Convergence     Electron number  ETRS Iterations
 RTBSE|            3220     0.50623592E-007     0.10000000E+002                7
 RTBSE| Simulation step         Convergence     Electron number  ETRS Iterations
 RTBSE|            3221     0.46474812E-007     0.10000000E+002                7
 RTBSE| Simulation step         Convergence     Electron number  ETRS Iterations
 RTBSE|            3222     0.42005868E-007     0.10000000E+002                7
 RTBSE| Simulation step         Convergence     Electron number  ETRS Iterations
 RTBSE|            3223     0.37510329E-007     0.10000000E+002                7
 RTBSE| Simulation step         Convergence     Electron number  ETRS Iterations
 RTBSE|            3224     0.33166429E-007     0.10000000E+002                7
 RTBSE| Simulation step         Convergence     Electron number  ETRS Iterations
 RTBSE|            3225     0.29119552E-007     0.10000000E+002                7
 RTBSE| Simulation step         Convergence     Electron number  ETRS Iterations
 RTBSE|            3226     0.25377678E-007     0.10000000E+002                7
 RTBSE| Simulation step         Convergence     Electron number  ETRS Iterations
 RTBSE|            3227     0.21883412E-007     0.10000000E+002                7
 RTBSE| Simulation step         Convergence     Electron number  ETRS Iterations
 RTBSE|            3228     0.18526597E-007     0.10000000E+002                7
 RTBSE| Simulation step         Convergence     Electron number  ETRS Iterations
 RTBSE|            3229     0.16219086E-007     0.10000000E+002                7
 RTBSE| Simulation step         Convergence     Electron number  ETRS Iterations
 RTBSE|            3230     0.14443196E-007     0.10000000E+002                7
 RTBSE| Simulation step         Convergence     Electron number  ETRS Iterations
 RTBSE|            3231     0.90711646E-007     0.10000000E+002                6
 RTBSE| Simulation step         Convergence     Electron number  ETRS Iterations
 RTBSE|            3232     0.72692513E-007     0.10000000E+002                6
 RTBSE| Simulation step         Convergence     Electron number  ETRS Iterations
 RTBSE|            3233     0.52450789E-007     0.10000000E+002                6
 RTBSE| Simulation step         Convergence     Electron number  ETRS Iterations
 RTBSE|            3234     0.33043206E-007     0.10000000E+002                6
 RTBSE| Simulation step         Convergence     Electron number  ETRS Iterations
 RTBSE|            3235     0.50974065E-007     0.10000000E+002                6
 RTBSE| Simulation step         Convergence     Electron number  ETRS Iterations
 RTBSE|            3236     0.71156157E-007     0.10000000E+002                6
 RTBSE| Simulation step         Convergence     Electron number  ETRS Iterations
 RTBSE|            3237     0.90394767E-007     0.10000000E+002                6
 RTBSE| Simulation step         Convergence     Electron number  ETRS Iterations
 RTBSE|            3238     0.16207126E-007     0.10000000E+002                7
 RTBSE| Simulation step         Convergence     Electron number  ETRS Iterations
 RTBSE|            3239     0.18630034E-007     0.10000000E+002                7
 RTBSE| Simulation step         Convergence     Electron number  ETRS Iterations
 RTBSE|            3240     0.20420509E-007     0.10000000E+002                7
 RTBSE| Simulation step         Convergence     Electron number  ETRS Iterations
 RTBSE|            3241     0.21476119E-007     0.10000000E+002                7
 RTBSE| Simulation step         Convergence     Electron number  ETRS Iterations
 RTBSE|            3242     0.21844037E-007     0.10000000E+002                7
 RTBSE| Simulation step         Convergence     Electron number  ETRS Iterations
 RTBSE|            3243     0.21543699E-007     0.10000000E+002                7
 RTBSE| Simulation step         Convergence     Electron number  ETRS Iterations
 RTBSE|            3244     0.20743401E-007     0.10000000E+002                7
 RTBSE| Simulation step         Convergence     Electron number  ETRS Iterations
 RTBSE|            3245     0.19604958E-007     0.10000000E+002                7
 RTBSE| Simulation step         Convergence     Electron number  ETRS Iterations
 RTBSE|            3246     0.18358789E-007     0.10000000E+002                7
 RTBSE| Simulation step         Convergence     Electron number  ETRS Iterations
 RTBSE|            3247     0.17229912E-007     0.10000000E+002                7
 RTBSE| Simulation step         Convergence     Electron number  ETRS Iterations
 RTBSE|            3248     0.16390768E-007     0.10000000E+002                7
 RTBSE| Simulation step         Convergence     Electron number  ETRS Iterations
 RTBSE|            3249     0.98405739E-007     0.10000000E+002                6
 RTBSE| Simulation step         Convergence     Electron number  ETRS Iterations
 RTBSE|            3250     0.99471335E-007     0.10000000E+002                6
 RTBSE| Simulation step         Convergence     Electron number  ETRS Iterations
 RTBSE|            3251     0.16409675E-007     0.10000000E+002                7
 RTBSE| Simulation step         Convergence     Electron number  ETRS Iterations
 RTBSE|            3252     0.17075110E-007     0.10000000E+002                7
 RTBSE| Simulation step         Convergence     Electron number  ETRS Iterations
 RTBSE|            3253     0.17763212E-007     0.10000000E+002                7
 RTBSE| Simulation step         Convergence     Electron number  ETRS Iterations
 RTBSE|            3254     0.18154495E-007     0.10000000E+002                7
 RTBSE| Simulation step         Convergence     Electron number  ETRS Iterations
 RTBSE|            3255     0.18140265E-007     0.10000000E+002                7
 RTBSE| Simulation step         Convergence     Electron number  ETRS Iterations
 RTBSE|            3256     0.17229179E-007     0.10000000E+002                7
 RTBSE| Simulation step         Convergence     Electron number  ETRS Iterations
 RTBSE|            3257     0.16361123E-007     0.10000000E+002                7
 RTBSE| Simulation step         Convergence     Electron number  ETRS Iterations
 RTBSE|            3258     0.15375799E-007     0.10000000E+002                7
 RTBSE| Simulation step         Convergence     Electron number  ETRS Iterations
 RTBSE|            3259     0.13375273E-007     0.10000000E+002                7
 RTBSE| Simulation step         Convergence     Electron number  ETRS Iterations
 RTBSE|            3260     0.70755784E-007     0.10000000E+002                6
 RTBSE| Simulation step         Convergence     Electron number  ETRS Iterations
 RTBSE|            3261     0.85186679E-007     0.10000000E+002                6
 RTBSE| Simulation step         Convergence     Electron number  ETRS Iterations
 RTBSE|            3262     0.20632967E-007     0.10000000E+002                7
 RTBSE| Simulation step         Convergence     Electron number  ETRS Iterations
 RTBSE|            3263     0.30570371E-007     0.10000000E+002                7
 RTBSE| Simulation step         Convergence     Electron number  ETRS Iterations
 RTBSE|            3264     0.39864094E-007     0.10000000E+002                7
 RTBSE| Simulation step         Convergence     Electron number  ETRS Iterations
 RTBSE|            3265     0.47719448E-007     0.10000000E+002                7
 RTBSE| Simulation step         Convergence     Electron number  ETRS Iterations
 RTBSE|            3266     0.53516108E-007     0.10000000E+002                7
 RTBSE| Simulation step         Convergence     Electron number  ETRS Iterations
 RTBSE|            3267     0.56969044E-007     0.10000000E+002                7
 RTBSE| Simulation step         Convergence     Electron number  ETRS Iterations
 RTBSE|            3268     0.58015602E-007     0.10000000E+002                7
 RTBSE| Simulation step         Convergence     Electron number  ETRS Iterations
 RTBSE|            3269     0.56950775E-007     0.10000000E+002                7
 RTBSE| Simulation step         Convergence     Electron number  ETRS Iterations
 RTBSE|            3270     0.54202871E-007     0.10000000E+002                7
 RTBSE| Simulation step         Convergence     Electron number  ETRS Iterations
 RTBSE|            3271     0.50312984E-007     0.10000000E+002                7
 RTBSE| Simulation step         Convergence     Electron number  ETRS Iterations
 RTBSE|            3272     0.45809187E-007     0.10000000E+002                7
 RTBSE| Simulation step         Convergence     Electron number  ETRS Iterations
 RTBSE|            3273     0.41190885E-007     0.10000000E+002                7
 RTBSE| Simulation step         Convergence     Electron number  ETRS Iterations
 RTBSE|            3274     0.36849156E-007     0.10000000E+002                7
 RTBSE| Simulation step         Convergence     Electron number  ETRS Iterations
 RTBSE|            3275     0.32974099E-007     0.10000000E+002                7
 RTBSE| Simulation step         Convergence     Electron number  ETRS Iterations
 RTBSE|            3276     0.29631976E-007     0.10000000E+002                7
 RTBSE| Simulation step         Convergence     Electron number  ETRS Iterations
 RTBSE|            3277     0.26730565E-007     0.10000000E+002                7
 RTBSE| Simulation step         Convergence     Electron number  ETRS Iterations
 RTBSE|            3278     0.24052426E-007     0.10000000E+002                7
 RTBSE| Simulation step         Convergence     Electron number  ETRS Iterations
 RTBSE|            3279     0.21403205E-007     0.10000000E+002                7
 RTBSE| Simulation step         Convergence     Electron number  ETRS Iterations
 RTBSE|            3280     0.18771762E-007     0.10000000E+002                7
 RTBSE| Simulation step         Convergence     Electron number  ETRS Iterations
 RTBSE|            3281     0.16443206E-007     0.10000000E+002                7
 RTBSE| Simulation step         Convergence     Electron number  ETRS Iterations
 RTBSE|            3282     0.14572158E-007     0.10000000E+002                7
 RTBSE| Simulation step         Convergence     Electron number  ETRS Iterations
 RTBSE|            3283     0.89500750E-007     0.10000000E+002                6
 RTBSE| Simulation step         Convergence     Electron number  ETRS Iterations
 RTBSE|            3284     0.68122962E-007     0.10000000E+002                6
 RTBSE| Simulation step         Convergence     Electron number  ETRS Iterations
 RTBSE|            3285     0.44138229E-007     0.10000000E+002                6
 RTBSE| Simulation step         Convergence     Electron number  ETRS Iterations
 RTBSE|            3286     0.42578036E-007     0.10000000E+002                6
 RTBSE| Simulation step         Convergence     Electron number  ETRS Iterations
 RTBSE|            3287     0.63552624E-007     0.10000000E+002                6
 RTBSE| Simulation step         Convergence     Electron number  ETRS Iterations
 RTBSE|            3288     0.83879267E-007     0.10000000E+002                6
 RTBSE| Simulation step         Convergence     Electron number  ETRS Iterations
 RTBSE|            3289     0.15173138E-007     0.10000000E+002                7
 RTBSE| Simulation step         Convergence     Electron number  ETRS Iterations
 RTBSE|            3290     0.17680311E-007     0.10000000E+002                7
 RTBSE| Simulation step         Convergence     Electron number  ETRS Iterations
 RTBSE|            3291     0.19394447E-007     0.10000000E+002                7
 RTBSE| Simulation step         Convergence     Electron number  ETRS Iterations
 RTBSE|            3292     0.20343962E-007     0.10000000E+002                7
 RTBSE| Simulation step         Convergence     Electron number  ETRS Iterations
 RTBSE|            3293     0.20528709E-007     0.10000000E+002                7
 RTBSE| Simulation step         Convergence     Electron number  ETRS Iterations
 RTBSE|            3294     0.20078053E-007     0.10000000E+002                7
 RTBSE| Simulation step         Convergence     Electron number  ETRS Iterations
 RTBSE|            3295     0.19148786E-007     0.10000000E+002                7
 RTBSE| Simulation step         Convergence     Electron number  ETRS Iterations
 RTBSE|            3296     0.17979012E-007     0.10000000E+002                7
 RTBSE| Simulation step         Convergence     Electron number  ETRS Iterations
 RTBSE|            3297     0.98261736E-007     0.10000000E+002                6
 RTBSE| Simulation step         Convergence     Electron number  ETRS Iterations
 RTBSE|            3298     0.92717205E-007     0.10000000E+002                6
 RTBSE| Simulation step         Convergence     Electron number  ETRS Iterations
 RTBSE|            3299     0.90320922E-007     0.10000000E+002                6
 RTBSE| Simulation step         Convergence     Electron number  ETRS Iterations
 RTBSE|            3300     0.90937890E-007     0.10000000E+002                6
 RTBSE| Simulation step         Convergence     Electron number  ETRS Iterations
 RTBSE|            3301     0.95049139E-007     0.10000000E+002                6
 RTBSE| Simulation step         Convergence     Electron number  ETRS Iterations
 RTBSE|            3302     0.17152244E-007     0.10000000E+002                7
 RTBSE| Simulation step         Convergence     Electron number  ETRS Iterations
 RTBSE|            3303     0.18484511E-007     0.10000000E+002                7
 RTBSE| Simulation step         Convergence     Electron number  ETRS Iterations
 RTBSE|            3304     0.19812370E-007     0.10000000E+002                7
 RTBSE| Simulation step         Convergence     Electron number  ETRS Iterations
 RTBSE|            3305     0.20858078E-007     0.10000000E+002                7
 RTBSE| Simulation step         Convergence     Electron number  ETRS Iterations
 RTBSE|            3306     0.21412032E-007     0.10000000E+002                7
 RTBSE| Simulation step         Convergence     Electron number  ETRS Iterations
 RTBSE|            3307     0.21018052E-007     0.10000000E+002                7
 RTBSE| Simulation step         Convergence     Electron number  ETRS Iterations
 RTBSE|            3308     0.19127962E-007     0.10000000E+002                7
 RTBSE| Simulation step         Convergence     Electron number  ETRS Iterations
 RTBSE|            3309     0.17820515E-007     0.10000000E+002                7
 RTBSE| Simulation step         Convergence     Electron number  ETRS Iterations
 RTBSE|            3310     0.15776520E-007     0.10000000E+002                7
 RTBSE| Simulation step         Convergence     Electron number  ETRS Iterations
 RTBSE|            3311     0.93741848E-007     0.10000000E+002                6
 RTBSE| Simulation step         Convergence     Electron number  ETRS Iterations
 RTBSE|            3312     0.72553702E-007     0.10000000E+002                6
 RTBSE| Simulation step         Convergence     Electron number  ETRS Iterations
 RTBSE|            3313     0.18257919E-007     0.10000000E+002                7
 RTBSE| Simulation step         Convergence     Electron number  ETRS Iterations
 RTBSE|            3314     0.29051459E-007     0.10000000E+002                7
 RTBSE| Simulation step         Convergence     Electron number  ETRS Iterations
 RTBSE|            3315     0.39060778E-007     0.10000000E+002                7
 RTBSE| Simulation step         Convergence     Electron number  ETRS Iterations
 RTBSE|            3316     0.47365286E-007     0.10000000E+002                7
 RTBSE| Simulation step         Convergence     Electron number  ETRS Iterations
 RTBSE|            3317     0.53261338E-007     0.10000000E+002                7
 RTBSE| Simulation step         Convergence     Electron number  ETRS Iterations
 RTBSE|            3318     0.56452238E-007     0.10000000E+002                7
 RTBSE| Simulation step         Convergence     Electron number  ETRS Iterations
 RTBSE|            3319     0.56981894E-007     0.10000000E+002                7
 RTBSE| Simulation step         Convergence     Electron number  ETRS Iterations
 RTBSE|            3320     0.55265200E-007     0.10000000E+002                7
 RTBSE| Simulation step         Convergence     Electron number  ETRS Iterations
 RTBSE|            3321     0.51951036E-007     0.10000000E+002                7
 RTBSE| Simulation step         Convergence     Electron number  ETRS Iterations
 RTBSE|            3322     0.47693633E-007     0.10000000E+002                7
 RTBSE| Simulation step         Convergence     Electron number  ETRS Iterations
 RTBSE|            3323     0.43158026E-007     0.10000000E+002                7
 RTBSE| Simulation step         Convergence     Electron number  ETRS Iterations
 RTBSE|            3324     0.38841459E-007     0.10000000E+002                7
 RTBSE| Simulation step         Convergence     Electron number  ETRS Iterations
 RTBSE|            3325     0.35081221E-007     0.10000000E+002                7
 RTBSE| Simulation step         Convergence     Electron number  ETRS Iterations
 RTBSE|            3326     0.32005714E-007     0.10000000E+002                7
 RTBSE| Simulation step         Convergence     Electron number  ETRS Iterations
 RTBSE|            3327     0.29570388E-007     0.10000000E+002                7
 RTBSE| Simulation step         Convergence     Electron number  ETRS Iterations
 RTBSE|            3328     0.27595295E-007     0.10000000E+002                7
 RTBSE| Simulation step         Convergence     Electron number  ETRS Iterations
 RTBSE|            3329     0.25760141E-007     0.10000000E+002                7
 RTBSE| Simulation step         Convergence     Electron number  ETRS Iterations
 RTBSE|            3330     0.23795499E-007     0.10000000E+002                7
 RTBSE| Simulation step         Convergence     Electron number  ETRS Iterations
 RTBSE|            3331     0.21434925E-007     0.10000000E+002                7
 RTBSE| Simulation step         Convergence     Electron number  ETRS Iterations
 RTBSE|            3332     0.18967153E-007     0.10000000E+002                7
 RTBSE| Simulation step         Convergence     Electron number  ETRS Iterations
 RTBSE|            3333     0.16343422E-007     0.10000000E+002                7
 RTBSE| Simulation step         Convergence     Electron number  ETRS Iterations
 RTBSE|            3334     0.14275185E-007     0.10000000E+002                7
 RTBSE| Simulation step         Convergence     Electron number  ETRS Iterations
 RTBSE|            3335     0.85759096E-007     0.10000000E+002                6
 RTBSE| Simulation step         Convergence     Electron number  ETRS Iterations
 RTBSE|            3336     0.62707714E-007     0.10000000E+002                6
 RTBSE| Simulation step         Convergence     Electron number  ETRS Iterations
 RTBSE|            3337     0.37399610E-007     0.10000000E+002                6
 RTBSE| Simulation step         Convergence     Electron number  ETRS Iterations
 RTBSE|            3338     0.48811920E-007     0.10000000E+002                6
 RTBSE| Simulation step         Convergence     Electron number  ETRS Iterations
 RTBSE|            3339     0.70111074E-007     0.10000000E+002                6
 RTBSE| Simulation step         Convergence     Electron number  ETRS Iterations
 RTBSE|            3340     0.89442183E-007     0.10000000E+002                6
 RTBSE| Simulation step         Convergence     Electron number  ETRS Iterations
 RTBSE|            3341     0.15891775E-007     0.10000000E+002                7
 RTBSE| Simulation step         Convergence     Electron number  ETRS Iterations
 RTBSE|            3342     0.17934193E-007     0.10000000E+002                7
 RTBSE| Simulation step         Convergence     Electron number  ETRS Iterations
 RTBSE|            3343     0.19172494E-007     0.10000000E+002                7
 RTBSE| Simulation step         Convergence     Electron number  ETRS Iterations
 RTBSE|            3344     0.19589005E-007     0.10000000E+002                7
 RTBSE| Simulation step         Convergence     Electron number  ETRS Iterations
 RTBSE|            3345     0.19321654E-007     0.10000000E+002                7
 RTBSE| Simulation step         Convergence     Electron number  ETRS Iterations
 RTBSE|            3346     0.18504807E-007     0.10000000E+002                7
 RTBSE| Simulation step         Convergence     Electron number  ETRS Iterations
 RTBSE|            3347     0.17431840E-007     0.10000000E+002                7
 RTBSE| Simulation step         Convergence     Electron number  ETRS Iterations
 RTBSE|            3348     0.96318800E-007     0.10000000E+002                6
 RTBSE| Simulation step         Convergence     Electron number  ETRS Iterations
 RTBSE|            3349     0.90670626E-007     0.10000000E+002                6
 RTBSE| Simulation step         Convergence     Electron number  ETRS Iterations
 RTBSE|            3350     0.87930088E-007     0.10000000E+002                6
 RTBSE| Simulation step         Convergence     Electron number  ETRS Iterations
 RTBSE|            3351     0.88654014E-007     0.10000000E+002                6
 RTBSE| Simulation step         Convergence     Electron number  ETRS Iterations
 RTBSE|            3352     0.93139447E-007     0.10000000E+002                6
 RTBSE| Simulation step         Convergence     Electron number  ETRS Iterations
 RTBSE|            3353     0.17649334E-007     0.10000000E+002                7
 RTBSE| Simulation step         Convergence     Electron number  ETRS Iterations
 RTBSE|            3354     0.19330412E-007     0.10000000E+002                7
 RTBSE| Simulation step         Convergence     Electron number  ETRS Iterations
 RTBSE|            3355     0.21051136E-007     0.10000000E+002                7
 RTBSE| Simulation step         Convergence     Electron number  ETRS Iterations
 RTBSE|            3356     0.22491161E-007     0.10000000E+002                7
 RTBSE| Simulation step         Convergence     Electron number  ETRS Iterations
 RTBSE|            3357     0.23397230E-007     0.10000000E+002                7
 RTBSE| Simulation step         Convergence     Electron number  ETRS Iterations
 RTBSE|            3358     0.23308194E-007     0.10000000E+002                7
 RTBSE| Simulation step         Convergence     Electron number  ETRS Iterations
 RTBSE|            3359     0.21618024E-007     0.10000000E+002                7
 RTBSE| Simulation step         Convergence     Electron number  ETRS Iterations
 RTBSE|            3360     0.19331906E-007     0.10000000E+002                7
 RTBSE| Simulation step         Convergence     Electron number  ETRS Iterations
 RTBSE|            3361     0.16840740E-007     0.10000000E+002                7
 RTBSE| Simulation step         Convergence     Electron number  ETRS Iterations
 RTBSE|            3362     0.13511182E-007     0.10000000E+002                7
 RTBSE| Simulation step         Convergence     Electron number  ETRS Iterations
 RTBSE|            3363     0.62361802E-007     0.10000000E+002                6
 RTBSE| Simulation step         Convergence     Electron number  ETRS Iterations
 RTBSE|            3364     0.15994606E-007     0.10000000E+002                7
 RTBSE| Simulation step         Convergence     Electron number  ETRS Iterations
 RTBSE|            3365     0.26763661E-007     0.10000000E+002                7
 RTBSE| Simulation step         Convergence     Electron number  ETRS Iterations
 RTBSE|            3366     0.36654779E-007     0.10000000E+002                7
 RTBSE| Simulation step         Convergence     Electron number  ETRS Iterations
 RTBSE|            3367     0.44730649E-007     0.10000000E+002                7
 RTBSE| Simulation step         Convergence     Electron number  ETRS Iterations
 RTBSE|            3368     0.50356112E-007     0.10000000E+002                7
 RTBSE| Simulation step         Convergence     Electron number  ETRS Iterations
 RTBSE|            3369     0.53284827E-007     0.10000000E+002                7
 RTBSE| Simulation step         Convergence     Electron number  ETRS Iterations
 RTBSE|            3370     0.53660005E-007     0.10000000E+002                7
 RTBSE| Simulation step         Convergence     Electron number  ETRS Iterations
 RTBSE|            3371     0.51933898E-007     0.10000000E+002                7
 RTBSE| Simulation step         Convergence     Electron number  ETRS Iterations
 RTBSE|            3372     0.48793244E-007     0.10000000E+002                7
 RTBSE| Simulation step         Convergence     Electron number  ETRS Iterations
 RTBSE|            3373     0.44899160E-007     0.10000000E+002                7
 RTBSE| Simulation step         Convergence     Electron number  ETRS Iterations
 RTBSE|            3374     0.40818410E-007     0.10000000E+002                7
 RTBSE| Simulation step         Convergence     Electron number  ETRS Iterations
 RTBSE|            3375     0.37050806E-007     0.10000000E+002                7
 RTBSE| Simulation step         Convergence     Electron number  ETRS Iterations
 RTBSE|            3376     0.33847857E-007     0.10000000E+002                7
 RTBSE| Simulation step         Convergence     Electron number  ETRS Iterations
 RTBSE|            3377     0.31387984E-007     0.10000000E+002                7
 RTBSE| Simulation step         Convergence     Electron number  ETRS Iterations
 RTBSE|            3378     0.29584956E-007     0.10000000E+002                7
 RTBSE| Simulation step         Convergence     Electron number  ETRS Iterations
 RTBSE|            3379     0.28297797E-007     0.10000000E+002                7
 RTBSE| Simulation step         Convergence     Electron number  ETRS Iterations
 RTBSE|            3380     0.27230940E-007     0.10000000E+002                7
 RTBSE| Simulation step         Convergence     Electron number  ETRS Iterations
 RTBSE|            3381     0.26039786E-007     0.10000000E+002                7
 RTBSE| Simulation step         Convergence     Electron number  ETRS Iterations
 RTBSE|            3382     0.24456938E-007     0.10000000E+002                7
 RTBSE| Simulation step         Convergence     Electron number  ETRS Iterations
 RTBSE|            3383     0.22242112E-007     0.10000000E+002                7
 RTBSE| Simulation step         Convergence     Electron number  ETRS Iterations
 RTBSE|            3384     0.19940387E-007     0.10000000E+002                7
 RTBSE| Simulation step         Convergence     Electron number  ETRS Iterations
 RTBSE|            3385     0.16954163E-007     0.10000000E+002                7
 RTBSE| Simulation step         Convergence     Electron number  ETRS Iterations
 RTBSE|            3386     0.14761025E-007     0.10000000E+002                7
 RTBSE| Simulation step         Convergence     Electron number  ETRS Iterations
 RTBSE|            3387     0.87560524E-007     0.10000000E+002                6
 RTBSE| Simulation step         Convergence     Electron number  ETRS Iterations
 RTBSE|            3388     0.62279777E-007     0.10000000E+002                6
 RTBSE| Simulation step         Convergence     Electron number  ETRS Iterations
 RTBSE|            3389     0.34706722E-007     0.10000000E+002                6
 RTBSE| Simulation step         Convergence     Electron number  ETRS Iterations
 RTBSE|            3390     0.55691367E-007     0.10000000E+002                6
 RTBSE| Simulation step         Convergence     Electron number  ETRS Iterations
 RTBSE|            3391     0.77821089E-007     0.10000000E+002                6
 RTBSE| Simulation step         Convergence     Electron number  ETRS Iterations
 RTBSE|            3392     0.96602985E-007     0.10000000E+002                6
 RTBSE| Simulation step         Convergence     Electron number  ETRS Iterations
 RTBSE|            3393     0.16861516E-007     0.10000000E+002                7
 RTBSE| Simulation step         Convergence     Electron number  ETRS Iterations
 RTBSE|            3394     0.18590808E-007     0.10000000E+002                7
 RTBSE| Simulation step         Convergence     Electron number  ETRS Iterations
 RTBSE|            3395     0.19419266E-007     0.10000000E+002                7
 RTBSE| Simulation step         Convergence     Electron number  ETRS Iterations
 RTBSE|            3396     0.19438846E-007     0.10000000E+002                7
 RTBSE| Simulation step         Convergence     Electron number  ETRS Iterations
 RTBSE|            3397     0.18835540E-007     0.10000000E+002                7
 RTBSE| Simulation step         Convergence     Electron number  ETRS Iterations
 RTBSE|            3398     0.17860380E-007     0.10000000E+002                7
 RTBSE| Simulation step         Convergence     Electron number  ETRS Iterations
 RTBSE|            3399     0.99410686E-007     0.10000000E+002                6
 RTBSE| Simulation step         Convergence     Electron number  ETRS Iterations
 RTBSE|            3400     0.93279991E-007     0.10000000E+002                6
 RTBSE| Simulation step         Convergence     Electron number  ETRS Iterations
 RTBSE|            3401     0.89811509E-007     0.10000000E+002                6
 RTBSE| Simulation step         Convergence     Electron number  ETRS Iterations
 RTBSE|            3402     0.89696757E-007     0.10000000E+002                6
 RTBSE| Simulation step         Convergence     Electron number  ETRS Iterations
 RTBSE|            3403     0.93026909E-007     0.10000000E+002                6
 RTBSE| Simulation step         Convergence     Electron number  ETRS Iterations
 RTBSE|            3404     0.17534914E-007     0.10000000E+002                7
 RTBSE| Simulation step         Convergence     Electron number  ETRS Iterations
 RTBSE|            3405     0.19117125E-007     0.10000000E+002                7
 RTBSE| Simulation step         Convergence     Electron number  ETRS Iterations
 RTBSE|            3406     0.20784483E-007     0.10000000E+002                7
 RTBSE| Simulation step         Convergence     Electron number  ETRS Iterations
 RTBSE|            3407     0.22220622E-007     0.10000000E+002                7
 RTBSE| Simulation step         Convergence     Electron number  ETRS Iterations
 RTBSE|            3408     0.23182856E-007     0.10000000E+002                7
 RTBSE| Simulation step         Convergence     Electron number  ETRS Iterations
 RTBSE|            3409     0.23229260E-007     0.10000000E+002                7
 RTBSE| Simulation step         Convergence     Electron number  ETRS Iterations
 RTBSE|            3410     0.21807957E-007     0.10000000E+002                7
 RTBSE| Simulation step         Convergence     Electron number  ETRS Iterations
 RTBSE|            3411     0.19307305E-007     0.10000000E+002                7
 RTBSE| Simulation step         Convergence     Electron number  ETRS Iterations
 RTBSE|            3412     0.17129839E-007     0.10000000E+002                7
 RTBSE| Simulation step         Convergence     Electron number  ETRS Iterations
 RTBSE|            3413     0.13738738E-007     0.10000000E+002                7
 RTBSE| Simulation step         Convergence     Electron number  ETRS Iterations
 RTBSE|            3414     0.69481594E-007     0.10000000E+002                6
 RTBSE| Simulation step         Convergence     Electron number  ETRS Iterations
 RTBSE|            3415     0.85582058E-007     0.10000000E+002                6
 RTBSE| Simulation step         Convergence     Electron number  ETRS Iterations
 RTBSE|            3416     0.22207049E-007     0.10000000E+002                7
 RTBSE| Simulation step         Convergence     Electron number  ETRS Iterations
 RTBSE|            3417     0.31636428E-007     0.10000000E+002                7
 RTBSE| Simulation step         Convergence     Electron number  ETRS Iterations
 RTBSE|            3418     0.39600734E-007     0.10000000E+002                7
 RTBSE| Simulation step         Convergence     Electron number  ETRS Iterations
 RTBSE|            3419     0.45444592E-007     0.10000000E+002                7
 RTBSE| Simulation step         Convergence     Electron number  ETRS Iterations
 RTBSE|            3420     0.48858781E-007     0.10000000E+002                7
 RTBSE| Simulation step         Convergence     Electron number  ETRS Iterations
 RTBSE|            3421     0.49853055E-007     0.10000000E+002                7
 RTBSE| Simulation step         Convergence     Electron number  ETRS Iterations
 RTBSE|            3422     0.48817500E-007     0.10000000E+002                7
 RTBSE| Simulation step         Convergence     Electron number  ETRS Iterations
 RTBSE|            3423     0.46256999E-007     0.10000000E+002                7
 RTBSE| Simulation step         Convergence     Electron number  ETRS Iterations
 RTBSE|            3424     0.42817837E-007     0.10000000E+002                7
 RTBSE| Simulation step         Convergence     Electron number  ETRS Iterations
 RTBSE|            3425     0.39114205E-007     0.10000000E+002                7
 RTBSE| Simulation step         Convergence     Electron number  ETRS Iterations
 RTBSE|            3426     0.35604411E-007     0.10000000E+002                7
 RTBSE| Simulation step         Convergence     Electron number  ETRS Iterations
 RTBSE|            3427     0.32690490E-007     0.10000000E+002                7
 RTBSE| Simulation step         Convergence     Electron number  ETRS Iterations
 RTBSE|            3428     0.30614339E-007     0.10000000E+002                7
 RTBSE| Simulation step         Convergence     Electron number  ETRS Iterations
 RTBSE|            3429     0.29392443E-007     0.10000000E+002                7
 RTBSE| Simulation step         Convergence     Electron number  ETRS Iterations
 RTBSE|            3430     0.28882335E-007     0.10000000E+002                7
 RTBSE| Simulation step         Convergence     Electron number  ETRS Iterations
 RTBSE|            3431     0.28750484E-007     0.10000000E+002                7
 RTBSE| Simulation step         Convergence     Electron number  ETRS Iterations
 RTBSE|            3432     0.28565048E-007     0.10000000E+002                7
 RTBSE| Simulation step         Convergence     Electron number  ETRS Iterations
 RTBSE|            3433     0.27885268E-007     0.10000000E+002                7
 RTBSE| Simulation step         Convergence     Electron number  ETRS Iterations
 RTBSE|            3434     0.26343241E-007     0.10000000E+002                7
 RTBSE| Simulation step         Convergence     Electron number  ETRS Iterations
 RTBSE|            3435     0.23973222E-007     0.10000000E+002                7
 RTBSE| Simulation step         Convergence     Electron number  ETRS Iterations
 RTBSE|            3436     0.21064872E-007     0.10000000E+002                7
 RTBSE| Simulation step         Convergence     Electron number  ETRS Iterations
 RTBSE|            3437     0.17789554E-007     0.10000000E+002                7
 RTBSE| Simulation step         Convergence     Electron number  ETRS Iterations
 RTBSE|            3438     0.15016819E-007     0.10000000E+002                7
 RTBSE| Simulation step         Convergence     Electron number  ETRS Iterations
 RTBSE|            3439     0.83687799E-007     0.10000000E+002                6
 RTBSE| Simulation step         Convergence     Electron number  ETRS Iterations
 RTBSE|            3440     0.53587845E-007     0.10000000E+002                6
 RTBSE| Simulation step         Convergence     Electron number  ETRS Iterations
 RTBSE|            3441     0.46322696E-007     0.10000000E+002                6
 RTBSE| Simulation step         Convergence     Electron number  ETRS Iterations
 RTBSE|            3442     0.70182912E-007     0.10000000E+002                6
 RTBSE| Simulation step         Convergence     Electron number  ETRS Iterations
 RTBSE|            3443     0.91750177E-007     0.10000000E+002                6
 RTBSE| Simulation step         Convergence     Electron number  ETRS Iterations
 RTBSE|            3444     0.16282147E-007     0.10000000E+002                7
 RTBSE| Simulation step         Convergence     Electron number  ETRS Iterations
 RTBSE|            3445     0.18423978E-007     0.10000000E+002                7
 RTBSE| Simulation step         Convergence     Electron number  ETRS Iterations
 RTBSE|            3446     0.19559372E-007     0.10000000E+002                7
 RTBSE| Simulation step         Convergence     Electron number  ETRS Iterations
 RTBSE|            3447     0.19759135E-007     0.10000000E+002                7
 RTBSE| Simulation step         Convergence     Electron number  ETRS Iterations
 RTBSE|            3448     0.19226116E-007     0.10000000E+002                7
 RTBSE| Simulation step         Convergence     Electron number  ETRS Iterations
 RTBSE|            3449     0.18176575E-007     0.10000000E+002                7
 RTBSE| Simulation step         Convergence     Electron number  ETRS Iterations
 RTBSE|            3450     0.16950574E-007     0.10000000E+002                7
 RTBSE| Simulation step         Convergence     Electron number  ETRS Iterations
 RTBSE|            3451     0.92286105E-007     0.10000000E+002                6
 RTBSE| Simulation step         Convergence     Electron number  ETRS Iterations
 RTBSE|            3452     0.86750121E-007     0.10000000E+002                6
 RTBSE| Simulation step         Convergence     Electron number  ETRS Iterations
 RTBSE|            3453     0.84505161E-007     0.10000000E+002                6
 RTBSE| Simulation step         Convergence     Electron number  ETRS Iterations
 RTBSE|            3454     0.85781182E-007     0.10000000E+002                6
 RTBSE| Simulation step         Convergence     Electron number  ETRS Iterations
 RTBSE|            3455     0.91361672E-007     0.10000000E+002                6
 RTBSE| Simulation step         Convergence     Electron number  ETRS Iterations
 RTBSE|            3456     0.17293891E-007     0.10000000E+002                7
 RTBSE| Simulation step         Convergence     Electron number  ETRS Iterations
 RTBSE|            3457     0.18868432E-007     0.10000000E+002                7
 RTBSE| Simulation step         Convergence     Electron number  ETRS Iterations
 RTBSE|            3458     0.20388701E-007     0.10000000E+002                7
 RTBSE| Simulation step         Convergence     Electron number  ETRS Iterations
 RTBSE|            3459     0.21644449E-007     0.10000000E+002                7
 RTBSE| Simulation step         Convergence     Electron number  ETRS Iterations
 RTBSE|            3460     0.22230826E-007     0.10000000E+002                7
 RTBSE| Simulation step         Convergence     Electron number  ETRS Iterations
 RTBSE|            3461     0.21645733E-007     0.10000000E+002                7
 RTBSE| Simulation step         Convergence     Electron number  ETRS Iterations
 RTBSE|            3462     0.19519340E-007     0.10000000E+002                7
 RTBSE| Simulation step         Convergence     Electron number  ETRS Iterations
 RTBSE|            3463     0.17699175E-007     0.10000000E+002                7
 RTBSE| Simulation step         Convergence     Electron number  ETRS Iterations
 RTBSE|            3464     0.15154663E-007     0.10000000E+002                7
 RTBSE| Simulation step         Convergence     Electron number  ETRS Iterations
 RTBSE|            3465     0.88196689E-007     0.10000000E+002                6
 RTBSE| Simulation step         Convergence     Electron number  ETRS Iterations
 RTBSE|            3466     0.60552129E-007     0.10000000E+002                6
 RTBSE| Simulation step         Convergence     Electron number  ETRS Iterations
 RTBSE|            3467     0.15989286E-007     0.10000000E+002                7
 RTBSE| Simulation step         Convergence     Electron number  ETRS Iterations
 RTBSE|            3468     0.25366795E-007     0.10000000E+002                7
 RTBSE| Simulation step         Convergence     Electron number  ETRS Iterations
 RTBSE|            3469     0.33719151E-007     0.10000000E+002                7
 RTBSE| Simulation step         Convergence     Electron number  ETRS Iterations
 RTBSE|            3470     0.40278978E-007     0.10000000E+002                7
 RTBSE| Simulation step         Convergence     Electron number  ETRS Iterations
 RTBSE|            3471     0.44543871E-007     0.10000000E+002                7
 RTBSE| Simulation step         Convergence     Electron number  ETRS Iterations
 RTBSE|            3472     0.46378190E-007     0.10000000E+002                7
 RTBSE| Simulation step         Convergence     Electron number  ETRS Iterations
 RTBSE|            3473     0.45988058E-007     0.10000000E+002                7
 RTBSE| Simulation step         Convergence     Electron number  ETRS Iterations
 RTBSE|            3474     0.43849143E-007     0.10000000E+002                7
 RTBSE| Simulation step         Convergence     Electron number  ETRS Iterations
 RTBSE|            3475     0.40680562E-007     0.10000000E+002                7
 RTBSE| Simulation step         Convergence     Electron number  ETRS Iterations
 RTBSE|            3476     0.37144258E-007     0.10000000E+002                7
 RTBSE| Simulation step         Convergence     Electron number  ETRS Iterations
 RTBSE|            3477     0.33888719E-007     0.10000000E+002                7
 RTBSE| Simulation step         Convergence     Electron number  ETRS Iterations
 RTBSE|            3478     0.31336218E-007     0.10000000E+002                7
 RTBSE| Simulation step         Convergence     Electron number  ETRS Iterations
 RTBSE|            3479     0.29793358E-007     0.10000000E+002                7
 RTBSE| Simulation step         Convergence     Electron number  ETRS Iterations
 RTBSE|            3480     0.29293940E-007     0.10000000E+002                7
 RTBSE| Simulation step         Convergence     Electron number  ETRS Iterations
 RTBSE|            3481     0.29626415E-007     0.10000000E+002                7
 RTBSE| Simulation step         Convergence     Electron number  ETRS Iterations
 RTBSE|            3482     0.30397033E-007     0.10000000E+002                7
 RTBSE| Simulation step         Convergence     Electron number  ETRS Iterations
 RTBSE|            3483     0.31066604E-007     0.10000000E+002                7
 RTBSE| Simulation step         Convergence     Electron number  ETRS Iterations
 RTBSE|            3484     0.31083891E-007     0.10000000E+002                7
 RTBSE| Simulation step         Convergence     Electron number  ETRS Iterations
 RTBSE|            3485     0.30058885E-007     0.10000000E+002                7
 RTBSE| Simulation step         Convergence     Electron number  ETRS Iterations
 RTBSE|            3486     0.27730385E-007     0.10000000E+002                7
 RTBSE| Simulation step         Convergence     Electron number  ETRS Iterations
 RTBSE|            3487     0.24587463E-007     0.10000000E+002                7
 RTBSE| Simulation step         Convergence     Electron number  ETRS Iterations
 RTBSE|            3488     0.20511969E-007     0.10000000E+002                7
 RTBSE| Simulation step         Convergence     Electron number  ETRS Iterations
 RTBSE|            3489     0.17386391E-007     0.10000000E+002                7
 RTBSE| Simulation step         Convergence     Electron number  ETRS Iterations
 RTBSE|            3490     0.13895363E-007     0.10000000E+002                7
 RTBSE| Simulation step         Convergence     Electron number  ETRS Iterations
 RTBSE|            3491     0.69238503E-007     0.10000000E+002                6
 RTBSE| Simulation step         Convergence     Electron number  ETRS Iterations
 RTBSE|            3492     0.38354637E-007     0.10000000E+002                6
 RTBSE| Simulation step         Convergence     Electron number  ETRS Iterations
 RTBSE|            3493     0.62232504E-007     0.10000000E+002                6
 RTBSE| Simulation step         Convergence     Electron number  ETRS Iterations
 RTBSE|            3494     0.85832939E-007     0.10000000E+002                6
 RTBSE| Simulation step         Convergence     Electron number  ETRS Iterations
 RTBSE|            3495     0.15547936E-007     0.10000000E+002                7
 RTBSE| Simulation step         Convergence     Electron number  ETRS Iterations
 RTBSE|            3496     0.18000769E-007     0.10000000E+002                7
 RTBSE| Simulation step         Convergence     Electron number  ETRS Iterations
 RTBSE|            3497     0.19321575E-007     0.10000000E+002                7
 RTBSE| Simulation step         Convergence     Electron number  ETRS Iterations
 RTBSE|            3498     0.19597585E-007     0.10000000E+002                7
 RTBSE| Simulation step         Convergence     Electron number  ETRS Iterations
 RTBSE|            3499     0.18984286E-007     0.10000000E+002                7
 RTBSE| Simulation step         Convergence     Electron number  ETRS Iterations
 RTBSE|            3500     0.17734277E-007     0.10000000E+002                7
 RTBSE| Simulation step         Convergence     Electron number  ETRS Iterations
 RTBSE|            3501     0.95343193E-007     0.10000000E+002                6
 RTBSE| Simulation step         Convergence     Electron number  ETRS Iterations
 RTBSE|            3502     0.85190037E-007     0.10000000E+002                6
 RTBSE| Simulation step         Convergence     Electron number  ETRS Iterations
 RTBSE|            3503     0.77398851E-007     0.10000000E+002                6
 RTBSE| Simulation step         Convergence     Electron number  ETRS Iterations
 RTBSE|            3504     0.73186778E-007     0.10000000E+002                6
 RTBSE| Simulation step         Convergence     Electron number  ETRS Iterations
 RTBSE|            3505     0.73162340E-007     0.10000000E+002                6
 RTBSE| Simulation step         Convergence     Electron number  ETRS Iterations
 RTBSE|            3506     0.77284548E-007     0.10000000E+002                6
 RTBSE| Simulation step         Convergence     Electron number  ETRS Iterations
 RTBSE|            3507     0.84870228E-007     0.10000000E+002                6
 RTBSE| Simulation step         Convergence     Electron number  ETRS Iterations
 RTBSE|            3508     0.95506294E-007     0.10000000E+002                6
 RTBSE| Simulation step         Convergence     Electron number  ETRS Iterations
 RTBSE|            3509     0.18906626E-007     0.10000000E+002                7
 RTBSE| Simulation step         Convergence     Electron number  ETRS Iterations
 RTBSE|            3510     0.20922912E-007     0.10000000E+002                7
 RTBSE| Simulation step         Convergence     Electron number  ETRS Iterations
 RTBSE|            3511     0.22451465E-007     0.10000000E+002                7
 RTBSE| Simulation step         Convergence     Electron number  ETRS Iterations
 RTBSE|            3512     0.22934990E-007     0.10000000E+002                7
 RTBSE| Simulation step         Convergence     Electron number  ETRS Iterations
 RTBSE|            3513     0.21952317E-007     0.10000000E+002                7
 RTBSE| Simulation step         Convergence     Electron number  ETRS Iterations
 RTBSE|            3514     0.19558650E-007     0.10000000E+002                7
 RTBSE| Simulation step         Convergence     Electron number  ETRS Iterations
 RTBSE|            3515     0.17684675E-007     0.10000000E+002                7
 RTBSE| Simulation step         Convergence     Electron number  ETRS Iterations
 RTBSE|            3516     0.14483287E-007     0.10000000E+002                7
 RTBSE| Simulation step         Convergence     Electron number  ETRS Iterations
 RTBSE|            3517     0.73332209E-007     0.10000000E+002                6
 RTBSE| Simulation step         Convergence     Electron number  ETRS Iterations
 RTBSE|            3518     0.74953918E-007     0.10000000E+002                6
 RTBSE| Simulation step         Convergence     Electron number  ETRS Iterations
 RTBSE|            3519     0.19980815E-007     0.10000000E+002                7
 RTBSE| Simulation step         Convergence     Electron number  ETRS Iterations
 RTBSE|            3520     0.28835551E-007     0.10000000E+002                7
 RTBSE| Simulation step         Convergence     Electron number  ETRS Iterations
 RTBSE|            3521     0.36047654E-007     0.10000000E+002                7
 RTBSE| Simulation step         Convergence     Electron number  ETRS Iterations
 RTBSE|            3522     0.40990197E-007     0.10000000E+002                7
 RTBSE| Simulation step         Convergence     Electron number  ETRS Iterations
 RTBSE|            3523     0.43411439E-007     0.10000000E+002                7
 RTBSE| Simulation step         Convergence     Electron number  ETRS Iterations
 RTBSE|            3524     0.43514754E-007     0.10000000E+002                7
 RTBSE| Simulation step         Convergence     Electron number  ETRS Iterations
 RTBSE|            3525     0.41796734E-007     0.10000000E+002                7
 RTBSE| Simulation step         Convergence     Electron number  ETRS Iterations
 RTBSE|            3526     0.38957797E-007     0.10000000E+002                7
 RTBSE| Simulation step         Convergence     Electron number  ETRS Iterations
 RTBSE|            3527     0.35752831E-007     0.10000000E+002                7
 RTBSE| Simulation step         Convergence     Electron number  ETRS Iterations
 RTBSE|            3528     0.32788008E-007     0.10000000E+002                7
 RTBSE| Simulation step         Convergence     Electron number  ETRS Iterations
 RTBSE|            3529     0.30557931E-007     0.10000000E+002                7
 RTBSE| Simulation step         Convergence     Electron number  ETRS Iterations
 RTBSE|            3530     0.29326163E-007     0.10000000E+002                7
 RTBSE| Simulation step         Convergence     Electron number  ETRS Iterations
 RTBSE|            3531     0.29142028E-007     0.10000000E+002                7
 RTBSE| Simulation step         Convergence     Electron number  ETRS Iterations
 RTBSE|            3532     0.29830236E-007     0.10000000E+002                7
 RTBSE| Simulation step         Convergence     Electron number  ETRS Iterations
 RTBSE|            3533     0.30995081E-007     0.10000000E+002                7
 RTBSE| Simulation step         Convergence     Electron number  ETRS Iterations
 RTBSE|            3534     0.32122315E-007     0.10000000E+002                7
 RTBSE| Simulation step         Convergence     Electron number  ETRS Iterations
 RTBSE|            3535     0.32640582E-007     0.10000000E+002                7
 RTBSE| Simulation step         Convergence     Electron number  ETRS Iterations
 RTBSE|            3536     0.32097688E-007     0.10000000E+002                7
 RTBSE| Simulation step         Convergence     Electron number  ETRS Iterations
 RTBSE|            3537     0.30214870E-007     0.10000000E+002                7
 RTBSE| Simulation step         Convergence     Electron number  ETRS Iterations
 RTBSE|            3538     0.26958935E-007     0.10000000E+002                7
 RTBSE| Simulation step         Convergence     Electron number  ETRS Iterations
 RTBSE|            3539     0.23257767E-007     0.10000000E+002                7
 RTBSE| Simulation step         Convergence     Electron number  ETRS Iterations
 RTBSE|            3540     0.19214032E-007     0.10000000E+002                7
 RTBSE| Simulation step         Convergence     Electron number  ETRS Iterations
 RTBSE|            3541     0.15823459E-007     0.10000000E+002                7
 RTBSE| Simulation step         Convergence     Electron number  ETRS Iterations
 RTBSE|            3542     0.83954951E-007     0.10000000E+002                6
 RTBSE| Simulation step         Convergence     Electron number  ETRS Iterations
 RTBSE|            3543     0.49856244E-007     0.10000000E+002                6
 RTBSE| Simulation step         Convergence     Electron number  ETRS Iterations
 RTBSE|            3544     0.51385582E-007     0.10000000E+002                6
 RTBSE| Simulation step         Convergence     Electron number  ETRS Iterations
 RTBSE|            3545     0.75928835E-007     0.10000000E+002                6
 RTBSE| Simulation step         Convergence     Electron number  ETRS Iterations
 RTBSE|            3546     0.96126025E-007     0.10000000E+002                6
 RTBSE| Simulation step         Convergence     Electron number  ETRS Iterations
 RTBSE|            3547     0.16804743E-007     0.10000000E+002                7
 RTBSE| Simulation step         Convergence     Electron number  ETRS Iterations
 RTBSE|            3548     0.18285139E-007     0.10000000E+002                7
 RTBSE| Simulation step         Convergence     Electron number  ETRS Iterations
 RTBSE|            3549     0.18567939E-007     0.10000000E+002                7
 RTBSE| Simulation step         Convergence     Electron number  ETRS Iterations
 RTBSE|            3550     0.17848646E-007     0.10000000E+002                7
 RTBSE| Simulation step         Convergence     Electron number  ETRS Iterations
 RTBSE|            3551     0.97898050E-007     0.10000000E+002                6
 RTBSE| Simulation step         Convergence     Electron number  ETRS Iterations
 RTBSE|            3552     0.85807689E-007     0.10000000E+002                6
 RTBSE| Simulation step         Convergence     Electron number  ETRS Iterations
 RTBSE|            3553     0.74413991E-007     0.10000000E+002                6
 RTBSE| Simulation step         Convergence     Electron number  ETRS Iterations
 RTBSE|            3554     0.65693624E-007     0.10000000E+002                6
 RTBSE| Simulation step         Convergence     Electron number  ETRS Iterations
 RTBSE|            3555     0.61259044E-007     0.10000000E+002                6
 RTBSE| Simulation step         Convergence     Electron number  ETRS Iterations
 RTBSE|            3556     0.61936091E-007     0.10000000E+002                6
 RTBSE| Simulation step         Convergence     Electron number  ETRS Iterations
 RTBSE|            3557     0.67789949E-007     0.10000000E+002                6
 RTBSE| Simulation step         Convergence     Electron number  ETRS Iterations
 RTBSE|            3558     0.78081088E-007     0.10000000E+002                6
 RTBSE| Simulation step         Convergence     Electron number  ETRS Iterations
 RTBSE|            3559     0.91445572E-007     0.10000000E+002                6
 RTBSE| Simulation step         Convergence     Electron number  ETRS Iterations
 RTBSE|            3560     0.18690944E-007     0.10000000E+002                7
 RTBSE| Simulation step         Convergence     Electron number  ETRS Iterations
 RTBSE|            3561     0.21389252E-007     0.10000000E+002                7
 RTBSE| Simulation step         Convergence     Electron number  ETRS Iterations
 RTBSE|            3562     0.23605361E-007     0.10000000E+002                7
 RTBSE| Simulation step         Convergence     Electron number  ETRS Iterations
 RTBSE|            3563     0.24746228E-007     0.10000000E+002                7
 RTBSE| Simulation step         Convergence     Electron number  ETRS Iterations
 RTBSE|            3564     0.24350379E-007     0.10000000E+002                7
 RTBSE| Simulation step         Convergence     Electron number  ETRS Iterations
 RTBSE|            3565     0.22231944E-007     0.10000000E+002                7
 RTBSE| Simulation step         Convergence     Electron number  ETRS Iterations
 RTBSE|            3566     0.19932861E-007     0.10000000E+002                7
 RTBSE| Simulation step         Convergence     Electron number  ETRS Iterations
 RTBSE|            3567     0.16908029E-007     0.10000000E+002                7
 RTBSE| Simulation step         Convergence     Electron number  ETRS Iterations
 RTBSE|            3568     0.93132966E-007     0.10000000E+002                6
 RTBSE| Simulation step         Convergence     Electron number  ETRS Iterations
 RTBSE|            3569     0.59150326E-007     0.10000000E+002                6
 RTBSE| Simulation step         Convergence     Electron number  ETRS Iterations
 RTBSE|            3570     0.96831126E-007     0.10000000E+002                6
 RTBSE| Simulation step         Convergence     Electron number  ETRS Iterations
 RTBSE|            3571     0.24668165E-007     0.10000000E+002                7
 RTBSE| Simulation step         Convergence     Electron number  ETRS Iterations
 RTBSE|            3572     0.32197854E-007     0.10000000E+002                7
 RTBSE| Simulation step         Convergence     Electron number  ETRS Iterations
 RTBSE|            3573     0.37605499E-007     0.10000000E+002                7
 RTBSE| Simulation step         Convergence     Electron number  ETRS Iterations
 RTBSE|            3574     0.40585072E-007     0.10000000E+002                7
 RTBSE| Simulation step         Convergence     Electron number  ETRS Iterations
 RTBSE|            3575     0.41241065E-007     0.10000000E+002                7
 RTBSE| Simulation step         Convergence     Electron number  ETRS Iterations
 RTBSE|            3576     0.39980539E-007     0.10000000E+002                7
 RTBSE| Simulation step         Convergence     Electron number  ETRS Iterations
 RTBSE|            3577     0.37470495E-007     0.10000000E+002                7
 RTBSE| Simulation step         Convergence     Electron number  ETRS Iterations
 RTBSE|            3578     0.34414954E-007     0.10000000E+002                7
 RTBSE| Simulation step         Convergence     Electron number  ETRS Iterations
 RTBSE|            3579     0.31453738E-007     0.10000000E+002                7
 RTBSE| Simulation step         Convergence     Electron number  ETRS Iterations
 RTBSE|            3580     0.29119624E-007     0.10000000E+002                7
 RTBSE| Simulation step         Convergence     Electron number  ETRS Iterations
 RTBSE|            3581     0.27731717E-007     0.10000000E+002                7
 RTBSE| Simulation step         Convergence     Electron number  ETRS Iterations
 RTBSE|            3582     0.27420580E-007     0.10000000E+002                7
 RTBSE| Simulation step         Convergence     Electron number  ETRS Iterations
 RTBSE|            3583     0.28131492E-007     0.10000000E+002                7
 RTBSE| Simulation step         Convergence     Electron number  ETRS Iterations
 RTBSE|            3584     0.29573946E-007     0.10000000E+002                7
 RTBSE| Simulation step         Convergence     Electron number  ETRS Iterations
 RTBSE|            3585     0.31231348E-007     0.10000000E+002                7
 RTBSE| Simulation step         Convergence     Electron number  ETRS Iterations
 RTBSE|            3586     0.32507126E-007     0.10000000E+002                7
 RTBSE| Simulation step         Convergence     Electron number  ETRS Iterations
 RTBSE|            3587     0.32848337E-007     0.10000000E+002                7
 RTBSE| Simulation step         Convergence     Electron number  ETRS Iterations
 RTBSE|            3588     0.31843970E-007     0.10000000E+002                7
 RTBSE| Simulation step         Convergence     Electron number  ETRS Iterations
 RTBSE|            3589     0.29346214E-007     0.10000000E+002                7
 RTBSE| Simulation step         Convergence     Electron number  ETRS Iterations
 RTBSE|            3590     0.25820509E-007     0.10000000E+002                7
 RTBSE| Simulation step         Convergence     Electron number  ETRS Iterations
 RTBSE|            3591     0.21397326E-007     0.10000000E+002                7
 RTBSE| Simulation step         Convergence     Electron number  ETRS Iterations
 RTBSE|            3592     0.17695739E-007     0.10000000E+002                7
 RTBSE| Simulation step         Convergence     Electron number  ETRS Iterations
 RTBSE|            3593     0.13911430E-007     0.10000000E+002                7
 RTBSE| Simulation step         Convergence     Electron number  ETRS Iterations
 RTBSE|            3594     0.67340019E-007     0.10000000E+002                6
 RTBSE| Simulation step         Convergence     Electron number  ETRS Iterations
 RTBSE|            3595     0.35970570E-007     0.10000000E+002                6
 RTBSE| Simulation step         Convergence     Electron number  ETRS Iterations
 RTBSE|            3596     0.58382036E-007     0.10000000E+002                6
 RTBSE| Simulation step         Convergence     Electron number  ETRS Iterations
 RTBSE|            3597     0.79099403E-007     0.10000000E+002                6
 RTBSE| Simulation step         Convergence     Electron number  ETRS Iterations
 RTBSE|            3598     0.93681133E-007     0.10000000E+002                6
 RTBSE| Simulation step         Convergence     Electron number  ETRS Iterations
 RTBSE|            3599     0.15808356E-007     0.10000000E+002                7
 RTBSE| Simulation step         Convergence     Electron number  ETRS Iterations
 RTBSE|            3600     0.16298107E-007     0.10000000E+002                7
 RTBSE| Simulation step         Convergence     Electron number  ETRS Iterations
 RTBSE|            3601     0.96551088E-007     0.10000000E+002                6
 RTBSE| Simulation step         Convergence     Electron number  ETRS Iterations
 RTBSE|            3602     0.87531247E-007     0.10000000E+002                6
 RTBSE| Simulation step         Convergence     Electron number  ETRS Iterations
 RTBSE|            3603     0.76883248E-007     0.10000000E+002                6
 RTBSE| Simulation step         Convergence     Electron number  ETRS Iterations
 RTBSE|            3604     0.66966348E-007     0.10000000E+002                6
 RTBSE| Simulation step         Convergence     Electron number  ETRS Iterations
 RTBSE|            3605     0.59924944E-007     0.10000000E+002                6
 RTBSE| Simulation step         Convergence     Electron number  ETRS Iterations
 RTBSE|            3606     0.57208164E-007     0.10000000E+002                6
 RTBSE| Simulation step         Convergence     Electron number  ETRS Iterations
 RTBSE|            3607     0.59612086E-007     0.10000000E+002                6
 RTBSE| Simulation step         Convergence     Electron number  ETRS Iterations
 RTBSE|            3608     0.67060364E-007     0.10000000E+002                6
 RTBSE| Simulation step         Convergence     Electron number  ETRS Iterations
 RTBSE|            3609     0.78745929E-007     0.10000000E+002                6
 RTBSE| Simulation step         Convergence     Electron number  ETRS Iterations
 RTBSE|            3610     0.93398454E-007     0.10000000E+002                6
 RTBSE| Simulation step         Convergence     Electron number  ETRS Iterations
 RTBSE|            3611     0.19016755E-007     0.10000000E+002                7
 RTBSE| Simulation step         Convergence     Electron number  ETRS Iterations
 RTBSE|            3612     0.21845661E-007     0.10000000E+002                7
 RTBSE| Simulation step         Convergence     Electron number  ETRS Iterations
 RTBSE|            3613     0.24188364E-007     0.10000000E+002                7
 RTBSE| Simulation step         Convergence     Electron number  ETRS Iterations
 RTBSE|            3614     0.25602621E-007     0.10000000E+002                7
 RTBSE| Simulation step         Convergence     Electron number  ETRS Iterations
 RTBSE|            3615     0.25713596E-007     0.10000000E+002                7
 RTBSE| Simulation step         Convergence     Electron number  ETRS Iterations
 RTBSE|            3616     0.24121603E-007     0.10000000E+002                7
 RTBSE| Simulation step         Convergence     Electron number  ETRS Iterations
 RTBSE|            3617     0.21261878E-007     0.10000000E+002                7
 RTBSE| Simulation step         Convergence     Electron number  ETRS Iterations
 RTBSE|            3618     0.18651619E-007     0.10000000E+002                7
 RTBSE| Simulation step         Convergence     Electron number  ETRS Iterations
 RTBSE|            3619     0.14701016E-007     0.10000000E+002                7
 RTBSE| Simulation step         Convergence     Electron number  ETRS Iterations
 RTBSE|            3620     0.67837593E-007     0.10000000E+002                6
 RTBSE| Simulation step         Convergence     Electron number  ETRS Iterations
 RTBSE|            3621     0.78738656E-007     0.10000000E+002                6
 RTBSE| Simulation step         Convergence     Electron number  ETRS Iterations
 RTBSE|            3622     0.20079546E-007     0.10000000E+002                7
 RTBSE| Simulation step         Convergence     Electron number  ETRS Iterations
 RTBSE|            3623     0.27929367E-007     0.10000000E+002                7
 RTBSE| Simulation step         Convergence     Electron number  ETRS Iterations
 RTBSE|            3624     0.33866324E-007     0.10000000E+002                7
 RTBSE| Simulation step         Convergence     Electron number  ETRS Iterations
 RTBSE|            3625     0.37491033E-007     0.10000000E+002                7
 RTBSE| Simulation step         Convergence     Electron number  ETRS Iterations
 RTBSE|            3626     0.38753784E-007     0.10000000E+002                7
 RTBSE| Simulation step         Convergence     Electron number  ETRS Iterations
 RTBSE|            3627     0.37964535E-007     0.10000000E+002                7
 RTBSE| Simulation step         Convergence     Electron number  ETRS Iterations
 RTBSE|            3628     0.35709875E-007     0.10000000E+002                7
 RTBSE| Simulation step         Convergence     Electron number  ETRS Iterations
 RTBSE|            3629     0.32711836E-007     0.10000000E+002                7
 RTBSE| Simulation step         Convergence     Electron number  ETRS Iterations
 RTBSE|            3630     0.29648810E-007     0.10000000E+002                7
 RTBSE| Simulation step         Convergence     Electron number  ETRS Iterations
 RTBSE|            3631     0.27158882E-007     0.10000000E+002                7
 RTBSE| Simulation step         Convergence     Electron number  ETRS Iterations
 RTBSE|            3632     0.25646685E-007     0.10000000E+002                7
 RTBSE| Simulation step         Convergence     Electron number  ETRS Iterations
 RTBSE|            3633     0.25336575E-007     0.10000000E+002                7
 RTBSE| Simulation step         Convergence     Electron number  ETRS Iterations
 RTBSE|            3634     0.26217533E-007     0.10000000E+002                7
 RTBSE| Simulation step         Convergence     Electron number  ETRS Iterations
 RTBSE|            3635     0.28010416E-007     0.10000000E+002                7
 RTBSE| Simulation step         Convergence     Electron number  ETRS Iterations
 RTBSE|            3636     0.30231108E-007     0.10000000E+002                7
 RTBSE| Simulation step         Convergence     Electron number  ETRS Iterations
 RTBSE|            3637     0.32268095E-007     0.10000000E+002                7
 RTBSE| Simulation step         Convergence     Electron number  ETRS Iterations
 RTBSE|            3638     0.33461584E-007     0.10000000E+002                7
 RTBSE| Simulation step         Convergence     Electron number  ETRS Iterations
 RTBSE|            3639     0.33355530E-007     0.10000000E+002                7
 RTBSE| Simulation step         Convergence     Electron number  ETRS Iterations
 RTBSE|            3640     0.31692318E-007     0.10000000E+002                7
 RTBSE| Simulation step         Convergence     Electron number  ETRS Iterations
 RTBSE|            3641     0.28497118E-007     0.10000000E+002                7
 RTBSE| Simulation step         Convergence     Electron number  ETRS Iterations
 RTBSE|            3642     0.24597250E-007     0.10000000E+002                7
 RTBSE| Simulation step         Convergence     Electron number  ETRS Iterations
 RTBSE|            3643     0.19726054E-007     0.10000000E+002                7
 RTBSE| Simulation step         Convergence     Electron number  ETRS Iterations
 RTBSE|            3644     0.16290238E-007     0.10000000E+002                7
 RTBSE| Simulation step         Convergence     Electron number  ETRS Iterations
 RTBSE|            3645     0.89347566E-007     0.10000000E+002                6
 RTBSE| Simulation step         Convergence     Electron number  ETRS Iterations
 RTBSE|            3646     0.57780206E-007     0.10000000E+002                6
 RTBSE| Simulation step         Convergence     Electron number  ETRS Iterations
 RTBSE|            3647     0.36354419E-007     0.10000000E+002                6
 RTBSE| Simulation step         Convergence     Electron number  ETRS Iterations
 RTBSE|            3648     0.55911022E-007     0.10000000E+002                6
 RTBSE| Simulation step         Convergence     Electron number  ETRS Iterations
 RTBSE|            3649     0.72494928E-007     0.10000000E+002                6
 RTBSE| Simulation step         Convergence     Electron number  ETRS Iterations
 RTBSE|            3650     0.83248697E-007     0.10000000E+002                6
 RTBSE| Simulation step         Convergence     Electron number  ETRS Iterations
 RTBSE|            3651     0.87859008E-007     0.10000000E+002                6
 RTBSE| Simulation step         Convergence     Electron number  ETRS Iterations
 RTBSE|            3652     0.87067466E-007     0.10000000E+002                6
 RTBSE| Simulation step         Convergence     Electron number  ETRS Iterations
 RTBSE|            3653     0.82304412E-007     0.10000000E+002                6
 RTBSE| Simulation step         Convergence     Electron number  ETRS Iterations
 RTBSE|            3654     0.75517571E-007     0.10000000E+002                6
 RTBSE| Simulation step         Convergence     Electron number  ETRS Iterations
 RTBSE|            3655     0.68689349E-007     0.10000000E+002                6
 RTBSE| Simulation step         Convergence     Electron number  ETRS Iterations
 RTBSE|            3656     0.63657927E-007     0.10000000E+002                6
 RTBSE| Simulation step         Convergence     Electron number  ETRS Iterations
 RTBSE|            3657     0.61824797E-007     0.10000000E+002                6
 RTBSE| Simulation step         Convergence     Electron number  ETRS Iterations
 RTBSE|            3658     0.64052771E-007     0.10000000E+002                6
 RTBSE| Simulation step         Convergence     Electron number  ETRS Iterations
 RTBSE|            3659     0.70487071E-007     0.10000000E+002                6
 RTBSE| Simulation step         Convergence     Electron number  ETRS Iterations
 RTBSE|            3660     0.80798689E-007     0.10000000E+002                6
 RTBSE| Simulation step         Convergence     Electron number  ETRS Iterations
 RTBSE|            3661     0.93971565E-007     0.10000000E+002                6
 RTBSE| Simulation step         Convergence     Electron number  ETRS Iterations
 RTBSE|            3662     0.18794191E-007     0.10000000E+002                7
 RTBSE| Simulation step         Convergence     Electron number  ETRS Iterations
 RTBSE|            3663     0.21490121E-007     0.10000000E+002                7
 RTBSE| Simulation step         Convergence     Electron number  ETRS Iterations
 RTBSE|            3664     0.23849459E-007     0.10000000E+002                7
 RTBSE| Simulation step         Convergence     Electron number  ETRS Iterations
 RTBSE|            3665     0.25505936E-007     0.10000000E+002                7
 RTBSE| Simulation step         Convergence     Electron number  ETRS Iterations
 RTBSE|            3666     0.26046912E-007     0.10000000E+002                7
 RTBSE| Simulation step         Convergence     Electron number  ETRS Iterations
 RTBSE|            3667     0.25069818E-007     0.10000000E+002                7
 RTBSE| Simulation step         Convergence     Electron number  ETRS Iterations
 RTBSE|            3668     0.22262859E-007     0.10000000E+002                7
 RTBSE| Simulation step         Convergence     Electron number  ETRS Iterations
 RTBSE|            3669     0.19790954E-007     0.10000000E+002                7
 RTBSE| Simulation step         Convergence     Electron number  ETRS Iterations
 RTBSE|            3670     0.16244101E-007     0.10000000E+002                7
 RTBSE| Simulation step         Convergence     Electron number  ETRS Iterations
 RTBSE|            3671     0.82742146E-007     0.10000000E+002                6
 RTBSE| Simulation step         Convergence     Electron number  ETRS Iterations
 RTBSE|            3672     0.61979705E-007     0.10000000E+002                6
 RTBSE| Simulation step         Convergence     Electron number  ETRS Iterations
 RTBSE|            3673     0.97593003E-007     0.10000000E+002                6
 RTBSE| Simulation step         Convergence     Electron number  ETRS Iterations
 RTBSE|            3674     0.23681092E-007     0.10000000E+002                7
 RTBSE| Simulation step         Convergence     Electron number  ETRS Iterations
 RTBSE|            3675     0.29869496E-007     0.10000000E+002                7
 RTBSE| Simulation step         Convergence     Electron number  ETRS Iterations
 RTBSE|            3676     0.33846446E-007     0.10000000E+002                7
 RTBSE| Simulation step         Convergence     Electron number  ETRS Iterations
 RTBSE|            3677     0.35492945E-007     0.10000000E+002                7
 RTBSE| Simulation step         Convergence     Electron number  ETRS Iterations
 RTBSE|            3678     0.35052534E-007     0.10000000E+002                7
 RTBSE| Simulation step         Convergence     Electron number  ETRS Iterations
 RTBSE|            3679     0.33090727E-007     0.10000000E+002                7
 RTBSE| Simulation step         Convergence     Electron number  ETRS Iterations
 RTBSE|            3680     0.30315893E-007     0.10000000E+002                7
 RTBSE| Simulation step         Convergence     Electron number  ETRS Iterations
 RTBSE|            3681     0.27454659E-007     0.10000000E+002                7
 RTBSE| Simulation step         Convergence     Electron number  ETRS Iterations
 RTBSE|            3682     0.25114328E-007     0.10000000E+002                7
 RTBSE| Simulation step         Convergence     Electron number  ETRS Iterations
 RTBSE|            3683     0.23728907E-007     0.10000000E+002                7
 RTBSE| Simulation step         Convergence     Electron number  ETRS Iterations
 RTBSE|            3684     0.23522285E-007     0.10000000E+002                7
 RTBSE| Simulation step         Convergence     Electron number  ETRS Iterations
 RTBSE|            3685     0.24519383E-007     0.10000000E+002                7
 RTBSE| Simulation step         Convergence     Electron number  ETRS Iterations
 RTBSE|            3686     0.26516029E-007     0.10000000E+002                7
 RTBSE| Simulation step         Convergence     Electron number  ETRS Iterations
 RTBSE|            3687     0.29100423E-007     0.10000000E+002                7
 RTBSE| Simulation step         Convergence     Electron number  ETRS Iterations
 RTBSE|            3688     0.31691954E-007     0.10000000E+002                7
 RTBSE| Simulation step         Convergence     Electron number  ETRS Iterations
 RTBSE|            3689     0.33684959E-007     0.10000000E+002                7
 RTBSE| Simulation step         Convergence     Electron number  ETRS Iterations
 RTBSE|            3690     0.34527533E-007     0.10000000E+002                7
 RTBSE| Simulation step         Convergence     Electron number  ETRS Iterations
 RTBSE|            3691     0.33892002E-007     0.10000000E+002                7
 RTBSE| Simulation step         Convergence     Electron number  ETRS Iterations
 RTBSE|            3692     0.31707230E-007     0.10000000E+002                7
 RTBSE| Simulation step         Convergence     Electron number  ETRS Iterations
 RTBSE|            3693     0.28149168E-007     0.10000000E+002                7
 RTBSE| Simulation step         Convergence     Electron number  ETRS Iterations
 RTBSE|            3694     0.24135125E-007     0.10000000E+002                7
 RTBSE| Simulation step         Convergence     Electron number  ETRS Iterations
 RTBSE|            3695     0.19303579E-007     0.10000000E+002                7
 RTBSE| Simulation step         Convergence     Electron number  ETRS Iterations
 RTBSE|            3696     0.15930691E-007     0.10000000E+002                7
 RTBSE| Simulation step         Convergence     Electron number  ETRS Iterations
 RTBSE|            3697     0.86773656E-007     0.10000000E+002                6
 RTBSE| Simulation step         Convergence     Electron number  ETRS Iterations
 RTBSE|            3698     0.55921522E-007     0.10000000E+002                6
 RTBSE| Simulation step         Convergence     Electron number  ETRS Iterations
 RTBSE|            3699     0.36415398E-007     0.10000000E+002                6
 RTBSE| Simulation step         Convergence     Electron number  ETRS Iterations
 RTBSE|            3700     0.54581402E-007     0.10000000E+002                6
 RTBSE| Simulation step         Convergence     Electron number  ETRS Iterations
 RTBSE|            3701     0.69665631E-007     0.10000000E+002                6
 RTBSE| Simulation step         Convergence     Electron number  ETRS Iterations
 RTBSE|            3702     0.79240727E-007     0.10000000E+002                6
 RTBSE| Simulation step         Convergence     Electron number  ETRS Iterations
 RTBSE|            3703     0.83212411E-007     0.10000000E+002                6
 RTBSE| Simulation step         Convergence     Electron number  ETRS Iterations
 RTBSE|            3704     0.82518067E-007     0.10000000E+002                6
 RTBSE| Simulation step         Convergence     Electron number  ETRS Iterations
 RTBSE|            3705     0.78603621E-007     0.10000000E+002                6
 RTBSE| Simulation step         Convergence     Electron number  ETRS Iterations
 RTBSE|            3706     0.73375247E-007     0.10000000E+002                6
 RTBSE| Simulation step         Convergence     Electron number  ETRS Iterations
 RTBSE|            3707     0.68602022E-007     0.10000000E+002                6
 RTBSE| Simulation step         Convergence     Electron number  ETRS Iterations
 RTBSE|            3708     0.65972645E-007     0.10000000E+002                6
 RTBSE| Simulation step         Convergence     Electron number  ETRS Iterations
 RTBSE|            3709     0.66560392E-007     0.10000000E+002                6
 RTBSE| Simulation step         Convergence     Electron number  ETRS Iterations
 RTBSE|            3710     0.70923452E-007     0.10000000E+002                6
 RTBSE| Simulation step         Convergence     Electron number  ETRS Iterations
 RTBSE|            3711     0.79091205E-007     0.10000000E+002                6
 RTBSE| Simulation step         Convergence     Electron number  ETRS Iterations
 RTBSE|            3712     0.90418582E-007     0.10000000E+002                6
 RTBSE| Simulation step         Convergence     Electron number  ETRS Iterations
 RTBSE|            3713     0.17889720E-007     0.10000000E+002                7
 RTBSE| Simulation step         Convergence     Electron number  ETRS Iterations
 RTBSE|            3714     0.20459667E-007     0.10000000E+002                7
 RTBSE| Simulation step         Convergence     Electron number  ETRS Iterations
 RTBSE|            3715     0.22842132E-007     0.10000000E+002                7
 RTBSE| Simulation step         Convergence     Electron number  ETRS Iterations
 RTBSE|            3716     0.24665555E-007     0.10000000E+002                7
 RTBSE| Simulation step         Convergence     Electron number  ETRS Iterations
 RTBSE|            3717     0.25522357E-007     0.10000000E+002                7
 RTBSE| Simulation step         Convergence     Electron number  ETRS Iterations
 RTBSE|            3718     0.25012869E-007     0.10000000E+002                7
 RTBSE| Simulation step         Convergence     Electron number  ETRS Iterations
 RTBSE|            3719     0.22848144E-007     0.10000000E+002                7
 RTBSE| Simulation step         Convergence     Electron number  ETRS Iterations
 RTBSE|            3720     0.19958806E-007     0.10000000E+002                7
 RTBSE| Simulation step         Convergence     Electron number  ETRS Iterations
 RTBSE|            3721     0.16965249E-007     0.10000000E+002                7
 RTBSE| Simulation step         Convergence     Electron number  ETRS Iterations
 RTBSE|            3722     0.92307210E-007     0.10000000E+002                6
 RTBSE| Simulation step         Convergence     Electron number  ETRS Iterations
 RTBSE|            3723     0.53649625E-007     0.10000000E+002                6
 RTBSE| Simulation step         Convergence     Electron number  ETRS Iterations
 RTBSE|            3724     0.75727385E-007     0.10000000E+002                6
 RTBSE| Simulation step         Convergence     Electron number  ETRS Iterations
 RTBSE|            3725     0.18290355E-007     0.10000000E+002                7
 RTBSE| Simulation step         Convergence     Electron number  ETRS Iterations
 RTBSE|            3726     0.24300517E-007     0.10000000E+002                7
 RTBSE| Simulation step         Convergence     Electron number  ETRS Iterations
 RTBSE|            3727     0.28454309E-007     0.10000000E+002                7
 RTBSE| Simulation step         Convergence     Electron number  ETRS Iterations
 RTBSE|            3728     0.30578794E-007     0.10000000E+002                7
 RTBSE| Simulation step         Convergence     Electron number  ETRS Iterations
 RTBSE|            3729     0.30811739E-007     0.10000000E+002                7
 RTBSE| Simulation step         Convergence     Electron number  ETRS Iterations
 RTBSE|            3730     0.29587981E-007     0.10000000E+002                7
 RTBSE| Simulation step         Convergence     Electron number  ETRS Iterations
 RTBSE|            3731     0.27504743E-007     0.10000000E+002                7
 RTBSE| Simulation step         Convergence     Electron number  ETRS Iterations
 RTBSE|            3732     0.25182724E-007     0.10000000E+002                7
 RTBSE| Simulation step         Convergence     Electron number  ETRS Iterations
 RTBSE|            3733     0.23189192E-007     0.10000000E+002                7
 RTBSE| Simulation step         Convergence     Electron number  ETRS Iterations
 RTBSE|            3734     0.21964861E-007     0.10000000E+002                7
 RTBSE| Simulation step         Convergence     Electron number  ETRS Iterations
 RTBSE|            3735     0.21799881E-007     0.10000000E+002                7
 RTBSE| Simulation step         Convergence     Electron number  ETRS Iterations
 RTBSE|            3736     0.22817150E-007     0.10000000E+002                7
 RTBSE| Simulation step         Convergence     Electron number  ETRS Iterations
 RTBSE|            3737     0.24947348E-007     0.10000000E+002                7
 RTBSE| Simulation step         Convergence     Electron number  ETRS Iterations
 RTBSE|            3738     0.27933296E-007     0.10000000E+002                7
 RTBSE| Simulation step         Convergence     Electron number  ETRS Iterations
 RTBSE|            3739     0.31225263E-007     0.10000000E+002                7
 RTBSE| Simulation step         Convergence     Electron number  ETRS Iterations
 RTBSE|            3740     0.34250448E-007     0.10000000E+002                7
 RTBSE| Simulation step         Convergence     Electron number  ETRS Iterations
 RTBSE|            3741     0.36340778E-007     0.10000000E+002                7
 RTBSE| Simulation step         Convergence     Electron number  ETRS Iterations
 RTBSE|            3742     0.37026215E-007     0.10000000E+002                7
 RTBSE| Simulation step         Convergence     Electron number  ETRS Iterations
 RTBSE|            3743     0.35979675E-007     0.10000000E+002                7
 RTBSE| Simulation step         Convergence     Electron number  ETRS Iterations
 RTBSE|            3744     0.33244640E-007     0.10000000E+002                7
 RTBSE| Simulation step         Convergence     Electron number  ETRS Iterations
 RTBSE|            3745     0.29263934E-007     0.10000000E+002                7
 RTBSE| Simulation step         Convergence     Electron number  ETRS Iterations
 RTBSE|            3746     0.24555853E-007     0.10000000E+002                7
 RTBSE| Simulation step         Convergence     Electron number  ETRS Iterations
 RTBSE|            3747     0.19743426E-007     0.10000000E+002                7
 RTBSE| Simulation step         Convergence     Electron number  ETRS Iterations
 RTBSE|            3748     0.15904922E-007     0.10000000E+002                7
 RTBSE| Simulation step         Convergence     Electron number  ETRS Iterations
 RTBSE|            3749     0.82729564E-007     0.10000000E+002                6
 RTBSE| Simulation step         Convergence     Electron number  ETRS Iterations
 RTBSE|            3750     0.49902265E-007     0.10000000E+002                6
 RTBSE| Simulation step         Convergence     Electron number  ETRS Iterations
 RTBSE|            3751     0.41991027E-007     0.10000000E+002                6
 RTBSE| Simulation step         Convergence     Electron number  ETRS Iterations
 RTBSE|            3752     0.59668613E-007     0.10000000E+002                6
 RTBSE| Simulation step         Convergence     Electron number  ETRS Iterations
 RTBSE|            3753     0.72780203E-007     0.10000000E+002                6
 RTBSE| Simulation step         Convergence     Electron number  ETRS Iterations
 RTBSE|            3754     0.80043356E-007     0.10000000E+002                6
 RTBSE| Simulation step         Convergence     Electron number  ETRS Iterations
 RTBSE|            3755     0.81894170E-007     0.10000000E+002                6
 RTBSE| Simulation step         Convergence     Electron number  ETRS Iterations
 RTBSE|            3756     0.79731971E-007     0.10000000E+002                6
 RTBSE| Simulation step         Convergence     Electron number  ETRS Iterations
 RTBSE|            3757     0.75343188E-007     0.10000000E+002                6
 RTBSE| Simulation step         Convergence     Electron number  ETRS Iterations
 RTBSE|            3758     0.70656942E-007     0.10000000E+002                6
 RTBSE| Simulation step         Convergence     Electron number  ETRS Iterations
 RTBSE|            3759     0.67385147E-007     0.10000000E+002                6
 RTBSE| Simulation step         Convergence     Electron number  ETRS Iterations
 RTBSE|            3760     0.66790909E-007     0.10000000E+002                6
 RTBSE| Simulation step         Convergence     Electron number  ETRS Iterations
 RTBSE|            3761     0.69665885E-007     0.10000000E+002                6
 RTBSE| Simulation step         Convergence     Electron number  ETRS Iterations
 RTBSE|            3762     0.76143473E-007     0.10000000E+002                6
 RTBSE| Simulation step         Convergence     Electron number  ETRS Iterations
 RTBSE|            3763     0.85880595E-007     0.10000000E+002                6
 RTBSE| Simulation step         Convergence     Electron number  ETRS Iterations
 RTBSE|            3764     0.97864318E-007     0.10000000E+002                6
 RTBSE| Simulation step         Convergence     Electron number  ETRS Iterations
 RTBSE|            3765     0.19130682E-007     0.10000000E+002                7
 RTBSE| Simulation step         Convergence     Electron number  ETRS Iterations
 RTBSE|            3766     0.21396511E-007     0.10000000E+002                7
 RTBSE| Simulation step         Convergence     Electron number  ETRS Iterations
 RTBSE|            3767     0.23252527E-007     0.10000000E+002                7
 RTBSE| Simulation step         Convergence     Electron number  ETRS Iterations
 RTBSE|            3768     0.24340234E-007     0.10000000E+002                7
 RTBSE| Simulation step         Convergence     Electron number  ETRS Iterations
 RTBSE|            3769     0.24321549E-007     0.10000000E+002                7
 RTBSE| Simulation step         Convergence     Electron number  ETRS Iterations
 RTBSE|            3770     0.22901237E-007     0.10000000E+002                7
 RTBSE| Simulation step         Convergence     Electron number  ETRS Iterations
 RTBSE|            3771     0.19893245E-007     0.10000000E+002                7
 RTBSE| Simulation step         Convergence     Electron number  ETRS Iterations
 RTBSE|            3772     0.17555056E-007     0.10000000E+002                7
 RTBSE| Simulation step         Convergence     Electron number  ETRS Iterations
 RTBSE|            3773     0.14171782E-007     0.10000000E+002                7
 RTBSE| Simulation step         Convergence     Electron number  ETRS Iterations
 RTBSE|            3774     0.70875836E-007     0.10000000E+002                6
 RTBSE| Simulation step         Convergence     Electron number  ETRS Iterations
 RTBSE|            3775     0.51609112E-007     0.10000000E+002                6
 RTBSE| Simulation step         Convergence     Electron number  ETRS Iterations
 RTBSE|            3776     0.79277027E-007     0.10000000E+002                6
 RTBSE| Simulation step         Convergence     Electron number  ETRS Iterations
 RTBSE|            3777     0.18360577E-007     0.10000000E+002                7
 RTBSE| Simulation step         Convergence     Electron number  ETRS Iterations
 RTBSE|            3778     0.22865365E-007     0.10000000E+002                7
 RTBSE| Simulation step         Convergence     Electron number  ETRS Iterations
 RTBSE|            3779     0.25604426E-007     0.10000000E+002                7
 RTBSE| Simulation step         Convergence     Electron number  ETRS Iterations
 RTBSE|            3780     0.26586874E-007     0.10000000E+002                7
 RTBSE| Simulation step         Convergence     Electron number  ETRS Iterations
 RTBSE|            3781     0.26104378E-007     0.10000000E+002                7
 RTBSE| Simulation step         Convergence     Electron number  ETRS Iterations
 RTBSE|            3782     0.24602471E-007     0.10000000E+002                7
 RTBSE| Simulation step         Convergence     Electron number  ETRS Iterations
 RTBSE|            3783     0.22701427E-007     0.10000000E+002                7
 RTBSE| Simulation step         Convergence     Electron number  ETRS Iterations
 RTBSE|            3784     0.20964409E-007     0.10000000E+002                7
 RTBSE| Simulation step         Convergence     Electron number  ETRS Iterations
 RTBSE|            3785     0.19939090E-007     0.10000000E+002                7
 RTBSE| Simulation step         Convergence     Electron number  ETRS Iterations
 RTBSE|            3786     0.19964976E-007     0.10000000E+002                7
 RTBSE| Simulation step         Convergence     Electron number  ETRS Iterations
 RTBSE|            3787     0.21301220E-007     0.10000000E+002                7
 RTBSE| Simulation step         Convergence     Electron number  ETRS Iterations
 RTBSE|            3788     0.23939331E-007     0.10000000E+002                7
 RTBSE| Simulation step         Convergence     Electron number  ETRS Iterations
 RTBSE|            3789     0.27643230E-007     0.10000000E+002                7
 RTBSE| Simulation step         Convergence     Electron number  ETRS Iterations
 RTBSE|            3790     0.31889676E-007     0.10000000E+002                7
 RTBSE| Simulation step         Convergence     Electron number  ETRS Iterations
 RTBSE|            3791     0.35994378E-007     0.10000000E+002                7
 RTBSE| Simulation step         Convergence     Electron number  ETRS Iterations
 RTBSE|            3792     0.39177665E-007     0.10000000E+002                7
 RTBSE| Simulation step         Convergence     Electron number  ETRS Iterations
 RTBSE|            3793     0.40814541E-007     0.10000000E+002                7
 RTBSE| Simulation step         Convergence     Electron number  ETRS Iterations
 RTBSE|            3794     0.40495894E-007     0.10000000E+002                7
 RTBSE| Simulation step         Convergence     Electron number  ETRS Iterations
 RTBSE|            3795     0.38157751E-007     0.10000000E+002                7
 RTBSE| Simulation step         Convergence     Electron number  ETRS Iterations
 RTBSE|            3796     0.34036240E-007     0.10000000E+002                7
 RTBSE| Simulation step         Convergence     Electron number  ETRS Iterations
 RTBSE|            3797     0.28970312E-007     0.10000000E+002                7
 RTBSE| Simulation step         Convergence     Electron number  ETRS Iterations
 RTBSE|            3798     0.23153320E-007     0.10000000E+002                7
 RTBSE| Simulation step         Convergence     Electron number  ETRS Iterations
 RTBSE|            3799     0.18790474E-007     0.10000000E+002                7
 RTBSE| Simulation step         Convergence     Electron number  ETRS Iterations
 RTBSE|            3800     0.14432978E-007     0.10000000E+002                7
 RTBSE| Simulation step         Convergence     Electron number  ETRS Iterations
 RTBSE|            3801     0.68822423E-007     0.10000000E+002                6
 RTBSE| Simulation step         Convergence     Electron number  ETRS Iterations
 RTBSE|            3802     0.37722501E-007     0.10000000E+002                6
 RTBSE| Simulation step         Convergence     Electron number  ETRS Iterations
 RTBSE|            3803     0.49299030E-007     0.10000000E+002                6
 RTBSE| Simulation step         Convergence     Electron number  ETRS Iterations
 RTBSE|            3804     0.64583033E-007     0.10000000E+002                6
 RTBSE| Simulation step         Convergence     Electron number  ETRS Iterations
 RTBSE|            3805     0.74427477E-007     0.10000000E+002                6
 RTBSE| Simulation step         Convergence     Electron number  ETRS Iterations
 RTBSE|            3806     0.78682454E-007     0.10000000E+002                6
 RTBSE| Simulation step         Convergence     Electron number  ETRS Iterations
 RTBSE|            3807     0.78391092E-007     0.10000000E+002                6
 RTBSE| Simulation step         Convergence     Electron number  ETRS Iterations
 RTBSE|            3808     0.75142006E-007     0.10000000E+002                6
 RTBSE| Simulation step         Convergence     Electron number  ETRS Iterations
 RTBSE|            3809     0.70725486E-007     0.10000000E+002                6
 RTBSE| Simulation step         Convergence     Electron number  ETRS Iterations
 RTBSE|            3810     0.66852880E-007     0.10000000E+002                6
 RTBSE| Simulation step         Convergence     Electron number  ETRS Iterations
 RTBSE|            3811     0.64890116E-007     0.10000000E+002                6
 RTBSE| Simulation step         Convergence     Electron number  ETRS Iterations
 RTBSE|            3812     0.65815713E-007     0.10000000E+002                6
 RTBSE| Simulation step         Convergence     Electron number  ETRS Iterations
 RTBSE|            3813     0.70106354E-007     0.10000000E+002                6
 RTBSE| Simulation step         Convergence     Electron number  ETRS Iterations
 RTBSE|            3814     0.77665205E-007     0.10000000E+002                6
 RTBSE| Simulation step         Convergence     Electron number  ETRS Iterations
 RTBSE|            3815     0.87948249E-007     0.10000000E+002                6
 RTBSE| Simulation step         Convergence     Electron number  ETRS Iterations
 RTBSE|            3816     0.99957733E-007     0.10000000E+002                6
 RTBSE| Simulation step         Convergence     Electron number  ETRS Iterations
 RTBSE|            3817     0.19371399E-007     0.10000000E+002                7
 RTBSE| Simulation step         Convergence     Electron number  ETRS Iterations
 RTBSE|            3818     0.21415756E-007     0.10000000E+002                7
 RTBSE| Simulation step         Convergence     Electron number  ETRS Iterations
 RTBSE|            3819     0.22947274E-007     0.10000000E+002                7
 RTBSE| Simulation step         Convergence     Electron number  ETRS Iterations
 RTBSE|            3820     0.23610556E-007     0.10000000E+002                7
 RTBSE| Simulation step         Convergence     Electron number  ETRS Iterations
 RTBSE|            3821     0.23118180E-007     0.10000000E+002                7
 RTBSE| Simulation step         Convergence     Electron number  ETRS Iterations
 RTBSE|            3822     0.21223981E-007     0.10000000E+002                7
 RTBSE| Simulation step         Convergence     Electron number  ETRS Iterations
 RTBSE|            3823     0.18465854E-007     0.10000000E+002                7
 RTBSE| Simulation step         Convergence     Electron number  ETRS Iterations
 RTBSE|            3824     0.15905350E-007     0.10000000E+002                7
 RTBSE| Simulation step         Convergence     Electron number  ETRS Iterations
 RTBSE|            3825     0.88460354E-007     0.10000000E+002                6
 RTBSE| Simulation step         Convergence     Electron number  ETRS Iterations
 RTBSE|            3826     0.57846970E-007     0.10000000E+002                6
 RTBSE| Simulation step         Convergence     Electron number  ETRS Iterations
 RTBSE|            3827     0.53695618E-007     0.10000000E+002                6
 RTBSE| Simulation step         Convergence     Electron number  ETRS Iterations
 RTBSE|            3828     0.76356426E-007     0.10000000E+002                6
 RTBSE| Simulation step         Convergence     Electron number  ETRS Iterations
 RTBSE|            3829     0.94850936E-007     0.10000000E+002                6
 RTBSE| Simulation step         Convergence     Electron number  ETRS Iterations
 RTBSE|            3830     0.20274615E-007     0.10000000E+002                7
 RTBSE| Simulation step         Convergence     Electron number  ETRS Iterations
 RTBSE|            3831     0.21823563E-007     0.10000000E+002                7
 RTBSE| Simulation step         Convergence     Electron number  ETRS Iterations
 RTBSE|            3832     0.21971672E-007     0.10000000E+002                7
 RTBSE| Simulation step         Convergence     Electron number  ETRS Iterations
 RTBSE|            3833     0.21125087E-007     0.10000000E+002                7
 RTBSE| Simulation step         Convergence     Electron number  ETRS Iterations
 RTBSE|            3834     0.19858273E-007     0.10000000E+002                7
 RTBSE| Simulation step         Convergence     Electron number  ETRS Iterations
 RTBSE|            3835     0.18756198E-007     0.10000000E+002                7
 RTBSE| Simulation step         Convergence     Electron number  ETRS Iterations
 RTBSE|            3836     0.18350246E-007     0.10000000E+002                7
 RTBSE| Simulation step         Convergence     Electron number  ETRS Iterations
 RTBSE|            3837     0.18982247E-007     0.10000000E+002                7
 RTBSE| Simulation step         Convergence     Electron number  ETRS Iterations
 RTBSE|            3838     0.20873971E-007     0.10000000E+002                7
 RTBSE| Simulation step         Convergence     Electron number  ETRS Iterations
 RTBSE|            3839     0.24020570E-007     0.10000000E+002                7
 RTBSE| Simulation step         Convergence     Electron number  ETRS Iterations
 RTBSE|            3840     0.28182466E-007     0.10000000E+002                7
 RTBSE| Simulation step         Convergence     Electron number  ETRS Iterations
 RTBSE|            3841     0.32886703E-007     0.10000000E+002                7
 RTBSE| Simulation step         Convergence     Electron number  ETRS Iterations
 RTBSE|            3842     0.37417381E-007     0.10000000E+002                7
 RTBSE| Simulation step         Convergence     Electron number  ETRS Iterations
 RTBSE|            3843     0.41078353E-007     0.10000000E+002                7
 RTBSE| Simulation step         Convergence     Electron number  ETRS Iterations
 RTBSE|            3844     0.43206930E-007     0.10000000E+002                7
 RTBSE| Simulation step         Convergence     Electron number  ETRS Iterations
 RTBSE|            3845     0.43364235E-007     0.10000000E+002                7
 RTBSE| Simulation step         Convergence     Electron number  ETRS Iterations
 RTBSE|            3846     0.41466870E-007     0.10000000E+002                7
 RTBSE| Simulation step         Convergence     Electron number  ETRS Iterations
 RTBSE|            3847     0.37711659E-007     0.10000000E+002                7
 RTBSE| Simulation step         Convergence     Electron number  ETRS Iterations
 RTBSE|            3848     0.32508539E-007     0.10000000E+002                7
 RTBSE| Simulation step         Convergence     Electron number  ETRS Iterations
 RTBSE|            3849     0.27003431E-007     0.10000000E+002                7
 RTBSE| Simulation step         Convergence     Electron number  ETRS Iterations
 RTBSE|            3850     0.21340576E-007     0.10000000E+002                7
 RTBSE| Simulation step         Convergence     Electron number  ETRS Iterations
 RTBSE|            3851     0.17104839E-007     0.10000000E+002                7
 RTBSE| Simulation step         Convergence     Electron number  ETRS Iterations
 RTBSE|            3852     0.89695144E-007     0.10000000E+002                6
 RTBSE| Simulation step         Convergence     Electron number  ETRS Iterations
 RTBSE|            3853     0.56531524E-007     0.10000000E+002                6
 RTBSE| Simulation step         Convergence     Electron number  ETRS Iterations
 RTBSE|            3854     0.35981356E-007     0.10000000E+002                6
 RTBSE| Simulation step         Convergence     Electron number  ETRS Iterations
 RTBSE|            3855     0.52029745E-007     0.10000000E+002                6
 RTBSE| Simulation step         Convergence     Electron number  ETRS Iterations
 RTBSE|            3856     0.64236915E-007     0.10000000E+002                6
 RTBSE| Simulation step         Convergence     Electron number  ETRS Iterations
 RTBSE|            3857     0.70952271E-007     0.10000000E+002                6
 RTBSE| Simulation step         Convergence     Electron number  ETRS Iterations
 RTBSE|            3858     0.72589750E-007     0.10000000E+002                6
 RTBSE| Simulation step         Convergence     Electron number  ETRS Iterations
 RTBSE|            3859     0.70486268E-007     0.10000000E+002                6
 RTBSE| Simulation step         Convergence     Electron number  ETRS Iterations
 RTBSE|            3860     0.66367230E-007     0.10000000E+002                6
 RTBSE| Simulation step         Convergence     Electron number  ETRS Iterations
 RTBSE|            3861     0.62081951E-007     0.10000000E+002                6
 RTBSE| Simulation step         Convergence     Electron number  ETRS Iterations
 RTBSE|            3862     0.59248755E-007     0.10000000E+002                6
 RTBSE| Simulation step         Convergence     Electron number  ETRS Iterations
 RTBSE|            3863     0.59108422E-007     0.10000000E+002                6
 RTBSE| Simulation step         Convergence     Electron number  ETRS Iterations
 RTBSE|            3864     0.62405057E-007     0.10000000E+002                6
 RTBSE| Simulation step         Convergence     Electron number  ETRS Iterations
 RTBSE|            3865     0.69290574E-007     0.10000000E+002                6
 RTBSE| Simulation step         Convergence     Electron number  ETRS Iterations
 RTBSE|            3866     0.79439364E-007     0.10000000E+002                6
 RTBSE| Simulation step         Convergence     Electron number  ETRS Iterations
 RTBSE|            3867     0.92006149E-007     0.10000000E+002                6
 RTBSE| Simulation step         Convergence     Electron number  ETRS Iterations
 RTBSE|            3868     0.17951509E-007     0.10000000E+002                7
 RTBSE| Simulation step         Convergence     Electron number  ETRS Iterations
 RTBSE|            3869     0.20310611E-007     0.10000000E+002                7
 RTBSE| Simulation step         Convergence     Electron number  ETRS Iterations
 RTBSE|            3870     0.22298198E-007     0.10000000E+002                7
 RTBSE| Simulation step         Convergence     Electron number  ETRS Iterations
 RTBSE|            3871     0.23572067E-007     0.10000000E+002                7
 RTBSE| Simulation step         Convergence     Electron number  ETRS Iterations
 RTBSE|            3872     0.23835669E-007     0.10000000E+002                7
 RTBSE| Simulation step         Convergence     Electron number  ETRS Iterations
 RTBSE|            3873     0.22814437E-007     0.10000000E+002                7
 RTBSE| Simulation step         Convergence     Electron number  ETRS Iterations
 RTBSE|            3874     0.20388171E-007     0.10000000E+002                7
 RTBSE| Simulation step         Convergence     Electron number  ETRS Iterations
 RTBSE|            3875     0.17685146E-007     0.10000000E+002                7
 RTBSE| Simulation step         Convergence     Electron number  ETRS Iterations
 RTBSE|            3876     0.14847029E-007     0.10000000E+002                7
 RTBSE| Simulation step         Convergence     Electron number  ETRS Iterations
 RTBSE|            3877     0.80862708E-007     0.10000000E+002                6
 RTBSE| Simulation step         Convergence     Electron number  ETRS Iterations
 RTBSE|            3878     0.53108673E-007     0.10000000E+002                6
 RTBSE| Simulation step         Convergence     Electron number  ETRS Iterations
 RTBSE|            3879     0.48291340E-007     0.10000000E+002                6
 RTBSE| Simulation step         Convergence     Electron number  ETRS Iterations
 RTBSE|            3880     0.65596920E-007     0.10000000E+002                6
 RTBSE| Simulation step         Convergence     Electron number  ETRS Iterations
 RTBSE|            3881     0.82749659E-007     0.10000000E+002                6
 RTBSE| Simulation step         Convergence     Electron number  ETRS Iterations
 RTBSE|            3882     0.95437462E-007     0.10000000E+002                6
 RTBSE| Simulation step         Convergence     Electron number  ETRS Iterations
 RTBSE|            3883     0.18036170E-007     0.10000000E+002                7
 RTBSE| Simulation step         Convergence     Electron number  ETRS Iterations
 RTBSE|            3884     0.18434038E-007     0.10000000E+002                7
 RTBSE| Simulation step         Convergence     Electron number  ETRS Iterations
 RTBSE|            3885     0.18385467E-007     0.10000000E+002                7
 RTBSE| Simulation step         Convergence     Electron number  ETRS Iterations
 RTBSE|            3886     0.18313392E-007     0.10000000E+002                7
 RTBSE| Simulation step         Convergence     Electron number  ETRS Iterations
 RTBSE|            3887     0.18652355E-007     0.10000000E+002                7
 RTBSE| Simulation step         Convergence     Electron number  ETRS Iterations
 RTBSE|            3888     0.19710923E-007     0.10000000E+002                7
 RTBSE| Simulation step         Convergence     Electron number  ETRS Iterations
 RTBSE|            3889     0.21714465E-007     0.10000000E+002                7
 RTBSE| Simulation step         Convergence     Electron number  ETRS Iterations
 RTBSE|            3890     0.24729724E-007     0.10000000E+002                7
 RTBSE| Simulation step         Convergence     Electron number  ETRS Iterations
 RTBSE|            3891     0.28614486E-007     0.10000000E+002                7
 RTBSE| Simulation step         Convergence     Electron number  ETRS Iterations
 RTBSE|            3892     0.33037563E-007     0.10000000E+002                7
 RTBSE| Simulation step         Convergence     Electron number  ETRS Iterations
 RTBSE|            3893     0.37495305E-007     0.10000000E+002                7
 RTBSE| Simulation step         Convergence     Electron number  ETRS Iterations
 RTBSE|            3894     0.41332461E-007     0.10000000E+002                7
 RTBSE| Simulation step         Convergence     Electron number  ETRS Iterations
 RTBSE|            3895     0.43932801E-007     0.10000000E+002                7
 RTBSE| Simulation step         Convergence     Electron number  ETRS Iterations
 RTBSE|            3896     0.44838416E-007     0.10000000E+002                7
 RTBSE| Simulation step         Convergence     Electron number  ETRS Iterations
 RTBSE|            3897     0.43816254E-007     0.10000000E+002                7
 RTBSE| Simulation step         Convergence     Electron number  ETRS Iterations
 RTBSE|            3898     0.40904839E-007     0.10000000E+002                7
 RTBSE| Simulation step         Convergence     Electron number  ETRS Iterations
 RTBSE|            3899     0.36391603E-007     0.10000000E+002                7
 RTBSE| Simulation step         Convergence     Electron number  ETRS Iterations
 RTBSE|            3900     0.30784793E-007     0.10000000E+002                7
 RTBSE| Simulation step         Convergence     Electron number  ETRS Iterations
 RTBSE|            3901     0.24847369E-007     0.10000000E+002                7
 RTBSE| Simulation step         Convergence     Electron number  ETRS Iterations
 RTBSE|            3902     0.19745586E-007     0.10000000E+002                7
 RTBSE| Simulation step         Convergence     Electron number  ETRS Iterations
 RTBSE|            3903     0.15338330E-007     0.10000000E+002                7
 RTBSE| Simulation step         Convergence     Electron number  ETRS Iterations
 RTBSE|            3904     0.77318071E-007     0.10000000E+002                6
 RTBSE| Simulation step         Convergence     Electron number  ETRS Iterations
 RTBSE|            3905     0.47437373E-007     0.10000000E+002                6
 RTBSE| Simulation step         Convergence     Electron number  ETRS Iterations
 RTBSE|            3906     0.36541366E-007     0.10000000E+002                6
 RTBSE| Simulation step         Convergence     Electron number  ETRS Iterations
 RTBSE|            3907     0.49402536E-007     0.10000000E+002                6
 RTBSE| Simulation step         Convergence     Electron number  ETRS Iterations
 RTBSE|            3908     0.57855676E-007     0.10000000E+002                6
 RTBSE| Simulation step         Convergence     Electron number  ETRS Iterations
 RTBSE|            3909     0.61501832E-007     0.10000000E+002                6
 RTBSE| Simulation step         Convergence     Electron number  ETRS Iterations
 RTBSE|            3910     0.61444867E-007     0.10000000E+002                6
 RTBSE| Simulation step         Convergence     Electron number  ETRS Iterations
 RTBSE|            3911     0.59293826E-007     0.10000000E+002                6
 RTBSE| Simulation step         Convergence     Electron number  ETRS Iterations
 RTBSE|            3912     0.56703403E-007     0.10000000E+002                6
 RTBSE| Simulation step         Convergence     Electron number  ETRS Iterations
 RTBSE|            3913     0.55239971E-007     0.10000000E+002                6
 RTBSE| Simulation step         Convergence     Electron number  ETRS Iterations
 RTBSE|            3914     0.56084766E-007     0.10000000E+002                6
 RTBSE| Simulation step         Convergence     Electron number  ETRS Iterations
 RTBSE|            3915     0.59948118E-007     0.10000000E+002                6
 RTBSE| Simulation step         Convergence     Electron number  ETRS Iterations
 RTBSE|            3916     0.67065592E-007     0.10000000E+002                6
 RTBSE| Simulation step         Convergence     Electron number  ETRS Iterations
 RTBSE|            3917     0.77210771E-007     0.10000000E+002                6
 RTBSE| Simulation step         Convergence     Electron number  ETRS Iterations
 RTBSE|            3918     0.89687488E-007     0.10000000E+002                6
 RTBSE| Simulation step         Convergence     Electron number  ETRS Iterations
 RTBSE|            3919     0.17337189E-007     0.10000000E+002                7
 RTBSE| Simulation step         Convergence     Electron number  ETRS Iterations
 RTBSE|            3920     0.19741107E-007     0.10000000E+002                7
 RTBSE| Simulation step         Convergence     Electron number  ETRS Iterations
 RTBSE|            3921     0.21901197E-007     0.10000000E+002                7
 RTBSE| Simulation step         Convergence     Electron number  ETRS Iterations
 RTBSE|            3922     0.23532857E-007     0.10000000E+002                7
 RTBSE| Simulation step         Convergence     Electron number  ETRS Iterations
 RTBSE|            3923     0.24349566E-007     0.10000000E+002                7
 RTBSE| Simulation step         Convergence     Electron number  ETRS Iterations
 RTBSE|            3924     0.24136263E-007     0.10000000E+002                7
 RTBSE| Simulation step         Convergence     Electron number  ETRS Iterations
 RTBSE|            3925     0.22727314E-007     0.10000000E+002                7
 RTBSE| Simulation step         Convergence     Electron number  ETRS Iterations
 RTBSE|            3926     0.20043250E-007     0.10000000E+002                7
 RTBSE| Simulation step         Convergence     Electron number  ETRS Iterations
 RTBSE|            3927     0.17424037E-007     0.10000000E+002                7
 RTBSE| Simulation step         Convergence     Electron number  ETRS Iterations
 RTBSE|            3928     0.14582817E-007     0.10000000E+002                7
 RTBSE| Simulation step         Convergence     Electron number  ETRS Iterations
 RTBSE|            3929     0.81452380E-007     0.10000000E+002                6
 RTBSE| Simulation step         Convergence     Electron number  ETRS Iterations
 RTBSE|            3930     0.56114759E-007     0.10000000E+002                6
 RTBSE| Simulation step         Convergence     Electron number  ETRS Iterations
 RTBSE|            3931     0.43158139E-007     0.10000000E+002                6
 RTBSE| Simulation step         Convergence     Electron number  ETRS Iterations
 RTBSE|            3932     0.61562175E-007     0.10000000E+002                6
 RTBSE| Simulation step         Convergence     Electron number  ETRS Iterations
 RTBSE|            3933     0.78574098E-007     0.10000000E+002                6
 RTBSE| Simulation step         Convergence     Electron number  ETRS Iterations
 RTBSE|            3934     0.92050548E-007     0.10000000E+002                6
 RTBSE| Simulation step         Convergence     Electron number  ETRS Iterations
 RTBSE|            3935     0.17351476E-007     0.10000000E+002                7
 RTBSE| Simulation step         Convergence     Electron number  ETRS Iterations
 RTBSE|            3936     0.18246122E-007     0.10000000E+002                7
 RTBSE| Simulation step         Convergence     Electron number  ETRS Iterations
 RTBSE|            3937     0.18741174E-007     0.10000000E+002                7
 RTBSE| Simulation step         Convergence     Electron number  ETRS Iterations
 RTBSE|            3938     0.19262728E-007     0.10000000E+002                7
 RTBSE| Simulation step         Convergence     Electron number  ETRS Iterations
 RTBSE|            3939     0.20142217E-007     0.10000000E+002                7
 RTBSE| Simulation step         Convergence     Electron number  ETRS Iterations
 RTBSE|            3940     0.21704816E-007     0.10000000E+002                7
 RTBSE| Simulation step         Convergence     Electron number  ETRS Iterations
 RTBSE|            3941     0.24140012E-007     0.10000000E+002                7
 RTBSE| Simulation step         Convergence     Electron number  ETRS Iterations
 RTBSE|            3942     0.27485723E-007     0.10000000E+002                7
 RTBSE| Simulation step         Convergence     Electron number  ETRS Iterations
 RTBSE|            3943     0.31592977E-007     0.10000000E+002                7
 RTBSE| Simulation step         Convergence     Electron number  ETRS Iterations
 RTBSE|            3944     0.36035130E-007     0.10000000E+002                7
 RTBSE| Simulation step         Convergence     Electron number  ETRS Iterations
 RTBSE|            3945     0.40240163E-007     0.10000000E+002                7
 RTBSE| Simulation step         Convergence     Electron number  ETRS Iterations
 RTBSE|            3946     0.43564931E-007     0.10000000E+002                7
 RTBSE| Simulation step         Convergence     Electron number  ETRS Iterations
 RTBSE|            3947     0.45429004E-007     0.10000000E+002                7
 RTBSE| Simulation step         Convergence     Electron number  ETRS Iterations
 RTBSE|            3948     0.45463466E-007     0.10000000E+002                7
 RTBSE| Simulation step         Convergence     Electron number  ETRS Iterations
 RTBSE|            3949     0.43578252E-007     0.10000000E+002                7
 RTBSE| Simulation step         Convergence     Electron number  ETRS Iterations
 RTBSE|            3950     0.39914844E-007     0.10000000E+002                7
 RTBSE| Simulation step         Convergence     Electron number  ETRS Iterations
 RTBSE|            3951     0.34861643E-007     0.10000000E+002                7
 RTBSE| Simulation step         Convergence     Electron number  ETRS Iterations
 RTBSE|            3952     0.28883870E-007     0.10000000E+002                7
 RTBSE| Simulation step         Convergence     Electron number  ETRS Iterations
 RTBSE|            3953     0.22908678E-007     0.10000000E+002                7
 RTBSE| Simulation step         Convergence     Electron number  ETRS Iterations
 RTBSE|            3954     0.18289710E-007     0.10000000E+002                7
 RTBSE| Simulation step         Convergence     Electron number  ETRS Iterations
 RTBSE|            3955     0.14175961E-007     0.10000000E+002                7
 RTBSE| Simulation step         Convergence     Electron number  ETRS Iterations
 RTBSE|            3956     0.74126826E-007     0.10000000E+002                6
 RTBSE| Simulation step         Convergence     Electron number  ETRS Iterations
 RTBSE|            3957     0.48086625E-007     0.10000000E+002                6
 RTBSE| Simulation step         Convergence     Electron number  ETRS Iterations
 RTBSE|            3958     0.30686589E-007     0.10000000E+002                6
 RTBSE| Simulation step         Convergence     Electron number  ETRS Iterations
 RTBSE|            3959     0.40865873E-007     0.10000000E+002                6
 RTBSE| Simulation step         Convergence     Electron number  ETRS Iterations
 RTBSE|            3960     0.48498491E-007     0.10000000E+002                6
 RTBSE| Simulation step         Convergence     Electron number  ETRS Iterations
 RTBSE|            3961     0.53052616E-007     0.10000000E+002                6
 RTBSE| Simulation step         Convergence     Electron number  ETRS Iterations
 RTBSE|            3962     0.55287265E-007     0.10000000E+002                6
 RTBSE| Simulation step         Convergence     Electron number  ETRS Iterations
 RTBSE|            3963     0.56345549E-007     0.10000000E+002                6
 RTBSE| Simulation step         Convergence     Electron number  ETRS Iterations
 RTBSE|            3964     0.57463245E-007     0.10000000E+002                6
 RTBSE| Simulation step         Convergence     Electron number  ETRS Iterations
 RTBSE|            3965     0.59673642E-007     0.10000000E+002                6
 RTBSE| Simulation step         Convergence     Electron number  ETRS Iterations
 RTBSE|            3966     0.63703465E-007     0.10000000E+002                6
 RTBSE| Simulation step         Convergence     Electron number  ETRS Iterations
 RTBSE|            3967     0.70001353E-007     0.10000000E+002                6
 RTBSE| Simulation step         Convergence     Electron number  ETRS Iterations
 RTBSE|            3968     0.78749247E-007     0.10000000E+002                6
 RTBSE| Simulation step         Convergence     Electron number  ETRS Iterations
 RTBSE|            3969     0.89653941E-007     0.10000000E+002                6
 RTBSE| Simulation step         Convergence     Electron number  ETRS Iterations
 RTBSE|            3970     0.16952223E-007     0.10000000E+002                7
 RTBSE| Simulation step         Convergence     Electron number  ETRS Iterations
 RTBSE|            3971     0.19226782E-007     0.10000000E+002                7
 RTBSE| Simulation step         Convergence     Electron number  ETRS Iterations
 RTBSE|            3972     0.21433393E-007     0.10000000E+002                7
 RTBSE| Simulation step         Convergence     Electron number  ETRS Iterations
 RTBSE|            3973     0.23324954E-007     0.10000000E+002                7
 RTBSE| Simulation step         Convergence     Electron number  ETRS Iterations
 RTBSE|            3974     0.24644731E-007     0.10000000E+002                7
 RTBSE| Simulation step         Convergence     Electron number  ETRS Iterations
 RTBSE|            3975     0.25120637E-007     0.10000000E+002                7
 RTBSE| Simulation step         Convergence     Electron number  ETRS Iterations
 RTBSE|            3976     0.24541673E-007     0.10000000E+002                7
 RTBSE| Simulation step         Convergence     Electron number  ETRS Iterations
 RTBSE|            3977     0.22751402E-007     0.10000000E+002                7
 RTBSE| Simulation step         Convergence     Electron number  ETRS Iterations
 RTBSE|            3978     0.19711796E-007     0.10000000E+002                7
 RTBSE| Simulation step         Convergence     Electron number  ETRS Iterations
 RTBSE|            3979     0.17146281E-007     0.10000000E+002                7
 RTBSE| Simulation step         Convergence     Electron number  ETRS Iterations
 RTBSE|            3980     0.14030774E-007     0.10000000E+002                7
 RTBSE| Simulation step         Convergence     Electron number  ETRS Iterations
 RTBSE|            3981     0.77832476E-007     0.10000000E+002                6
 RTBSE| Simulation step         Convergence     Electron number  ETRS Iterations
 RTBSE|            3982     0.51606341E-007     0.10000000E+002                6
 RTBSE| Simulation step         Convergence     Electron number  ETRS Iterations
 RTBSE|            3983     0.45974161E-007     0.10000000E+002                6
 RTBSE| Simulation step         Convergence     Electron number  ETRS Iterations
 RTBSE|            3984     0.63634247E-007     0.10000000E+002                6
 RTBSE| Simulation step         Convergence     Electron number  ETRS Iterations
 RTBSE|            3985     0.78960330E-007     0.10000000E+002                6
 RTBSE| Simulation step         Convergence     Electron number  ETRS Iterations
 RTBSE|            3986     0.90312417E-007     0.10000000E+002                6
 RTBSE| Simulation step         Convergence     Electron number  ETRS Iterations
 RTBSE|            3987     0.97829218E-007     0.10000000E+002                6
 RTBSE| Simulation step         Convergence     Electron number  ETRS Iterations
 RTBSE|            3988     0.17230814E-007     0.10000000E+002                7
 RTBSE| Simulation step         Convergence     Electron number  ETRS Iterations
 RTBSE|            3989     0.17787545E-007     0.10000000E+002                7
 RTBSE| Simulation step         Convergence     Electron number  ETRS Iterations
 RTBSE|            3990     0.18624783E-007     0.10000000E+002                7
 RTBSE| Simulation step         Convergence     Electron number  ETRS Iterations
 RTBSE|            3991     0.20139774E-007     0.10000000E+002                7
 RTBSE| Simulation step         Convergence     Electron number  ETRS Iterations
 RTBSE|            3992     0.22541979E-007     0.10000000E+002                7
 RTBSE| Simulation step         Convergence     Electron number  ETRS Iterations
 RTBSE|            3993     0.25938385E-007     0.10000000E+002                7
 RTBSE| Simulation step         Convergence     Electron number  ETRS Iterations
 RTBSE|            3994     0.30197683E-007     0.10000000E+002                7
 RTBSE| Simulation step         Convergence     Electron number  ETRS Iterations
 RTBSE|            3995     0.34926454E-007     0.10000000E+002                7
 RTBSE| Simulation step         Convergence     Electron number  ETRS Iterations
 RTBSE|            3996     0.39619598E-007     0.10000000E+002                7
 RTBSE| Simulation step         Convergence     Electron number  ETRS Iterations
 RTBSE|            3997     0.43635180E-007     0.10000000E+002                7
 RTBSE| Simulation step         Convergence     Electron number  ETRS Iterations
 RTBSE|            3998     0.46374318E-007     0.10000000E+002                7
 RTBSE| Simulation step         Convergence     Electron number  ETRS Iterations
 RTBSE|            3999     0.47427706E-007     0.10000000E+002                7
 RTBSE| Simulation step         Convergence     Electron number  ETRS Iterations
 RTBSE|            4000     0.46600532E-007     0.10000000E+002                7
 RTBSE| Simulation step         Convergence     Electron number  ETRS Iterations
 RTBSE|            4001     0.43967980E-007     0.10000000E+002                7
 RTBSE| Simulation step         Convergence     Electron number  ETRS Iterations
 RTBSE|            4002     0.39827669E-007     0.10000000E+002                7
 RTBSE| Simulation step         Convergence     Electron number  ETRS Iterations
 RTBSE|            4003     0.34578475E-007     0.10000000E+002                7
 RTBSE| Simulation step         Convergence     Electron number  ETRS Iterations
 RTBSE|            4004     0.28644507E-007     0.10000000E+002                7
 RTBSE| Simulation step         Convergence     Electron number  ETRS Iterations
 RTBSE|            4005     0.22701356E-007     0.10000000E+002                7
 RTBSE| Simulation step         Convergence     Electron number  ETRS Iterations
 RTBSE|            4006     0.18365557E-007     0.10000000E+002                7
 RTBSE| Simulation step         Convergence     Electron number  ETRS Iterations
 RTBSE|            4007     0.14502119E-007     0.10000000E+002                7
 RTBSE| Simulation step         Convergence     Electron number  ETRS Iterations
 RTBSE|            4008     0.79338801E-007     0.10000000E+002                6
 RTBSE| Simulation step         Convergence     Electron number  ETRS Iterations
 RTBSE|            4009     0.53323919E-007     0.10000000E+002                6
 RTBSE| Simulation step         Convergence     Electron number  ETRS Iterations
 RTBSE|            4010     0.30517068E-007     0.10000000E+002                6
 RTBSE| Simulation step         Convergence     Electron number  ETRS Iterations
 RTBSE|            4011     0.41139693E-007     0.10000000E+002                6
 RTBSE| Simulation step         Convergence     Electron number  ETRS Iterations
 RTBSE|            4012     0.50129123E-007     0.10000000E+002                6
 RTBSE| Simulation step         Convergence     Electron number  ETRS Iterations
 RTBSE|            4013     0.56440847E-007     0.10000000E+002                6
 RTBSE| Simulation step         Convergence     Electron number  ETRS Iterations
 RTBSE|            4014     0.60565350E-007     0.10000000E+002                6
 RTBSE| Simulation step         Convergence     Electron number  ETRS Iterations
 RTBSE|            4015     0.63497071E-007     0.10000000E+002                6
 RTBSE| Simulation step         Convergence     Electron number  ETRS Iterations
 RTBSE|            4016     0.66197943E-007     0.10000000E+002                6
 RTBSE| Simulation step         Convergence     Electron number  ETRS Iterations
 RTBSE|            4017     0.69749811E-007     0.10000000E+002                6
 RTBSE| Simulation step         Convergence     Electron number  ETRS Iterations
 RTBSE|            4018     0.74891355E-007     0.10000000E+002                6
 RTBSE| Simulation step         Convergence     Electron number  ETRS Iterations
 RTBSE|            4019     0.82064962E-007     0.10000000E+002                6
 RTBSE| Simulation step         Convergence     Electron number  ETRS Iterations
 RTBSE|            4020     0.91288829E-007     0.10000000E+002                6
 RTBSE| Simulation step         Convergence     Electron number  ETRS Iterations
 RTBSE|            4021     0.16851955E-007     0.10000000E+002                7
 RTBSE| Simulation step         Convergence     Electron number  ETRS Iterations
 RTBSE|            4022     0.18905426E-007     0.10000000E+002                7
 RTBSE| Simulation step         Convergence     Electron number  ETRS Iterations
 RTBSE|            4023     0.20989236E-007     0.10000000E+002                7
 RTBSE| Simulation step         Convergence     Electron number  ETRS Iterations
 RTBSE|            4024     0.22878579E-007     0.10000000E+002                7
 RTBSE| Simulation step         Convergence     Electron number  ETRS Iterations
 RTBSE|            4025     0.24327099E-007     0.10000000E+002                7
 RTBSE| Simulation step         Convergence     Electron number  ETRS Iterations
 RTBSE|            4026     0.25074631E-007     0.10000000E+002                7
 RTBSE| Simulation step         Convergence     Electron number  ETRS Iterations
 RTBSE|            4027     0.24900637E-007     0.10000000E+002                7
 RTBSE| Simulation step         Convergence     Electron number  ETRS Iterations
 RTBSE|            4028     0.23620928E-007     0.10000000E+002                7
 RTBSE| Simulation step         Convergence     Electron number  ETRS Iterations
 RTBSE|            4029     0.21192144E-007     0.10000000E+002                7
 RTBSE| Simulation step         Convergence     Electron number  ETRS Iterations
 RTBSE|            4030     0.17982523E-007     0.10000000E+002                7
 RTBSE| Simulation step         Convergence     Electron number  ETRS Iterations
 RTBSE|            4031     0.15322808E-007     0.10000000E+002                7
 RTBSE| Simulation step         Convergence     Electron number  ETRS Iterations
 RTBSE|            4032     0.90355779E-007     0.10000000E+002                6
 RTBSE| Simulation step         Convergence     Electron number  ETRS Iterations
 RTBSE|            4033     0.67685514E-007     0.10000000E+002                6
 RTBSE| Simulation step         Convergence     Electron number  ETRS Iterations
 RTBSE|            4034     0.44339172E-007     0.10000000E+002                6
 RTBSE| Simulation step         Convergence     Electron number  ETRS Iterations
 RTBSE|            4035     0.43955016E-007     0.10000000E+002                6
 RTBSE| Simulation step         Convergence     Electron number  ETRS Iterations
 RTBSE|            4036     0.58042362E-007     0.10000000E+002                6
 RTBSE| Simulation step         Convergence     Electron number  ETRS Iterations
 RTBSE|            4037     0.70014693E-007     0.10000000E+002                6
 RTBSE| Simulation step         Convergence     Electron number  ETRS Iterations
 RTBSE|            4038     0.79435552E-007     0.10000000E+002                6
 RTBSE| Simulation step         Convergence     Electron number  ETRS Iterations
 RTBSE|            4039     0.87142040E-007     0.10000000E+002                6
 RTBSE| Simulation step         Convergence     Electron number  ETRS Iterations
 RTBSE|            4040     0.94721780E-007     0.10000000E+002                6
 RTBSE| Simulation step         Convergence     Electron number  ETRS Iterations
 RTBSE|            4041     0.16683785E-007     0.10000000E+002                7
 RTBSE| Simulation step         Convergence     Electron number  ETRS Iterations
 RTBSE|            4042     0.18606491E-007     0.10000000E+002                7
 RTBSE| Simulation step         Convergence     Electron number  ETRS Iterations
 RTBSE|            4043     0.21302648E-007     0.10000000E+002                7
 RTBSE| Simulation step         Convergence     Electron number  ETRS Iterations
 RTBSE|            4044     0.24855181E-007     0.10000000E+002                7
 RTBSE| Simulation step         Convergence     Electron number  ETRS Iterations
 RTBSE|            4045     0.29216885E-007     0.10000000E+002                7
 RTBSE| Simulation step         Convergence     Electron number  ETRS Iterations
 RTBSE|            4046     0.34149531E-007     0.10000000E+002                7
 RTBSE| Simulation step         Convergence     Electron number  ETRS Iterations
 RTBSE|            4047     0.39270604E-007     0.10000000E+002                7
 RTBSE| Simulation step         Convergence     Electron number  ETRS Iterations
 RTBSE|            4048     0.43990652E-007     0.10000000E+002                7
 RTBSE| Simulation step         Convergence     Electron number  ETRS Iterations
 RTBSE|            4049     0.47752502E-007     0.10000000E+002                7
 RTBSE| Simulation step         Convergence     Electron number  ETRS Iterations
 RTBSE|            4050     0.50043300E-007     0.10000000E+002                7
 RTBSE| Simulation step         Convergence     Electron number  ETRS Iterations
 RTBSE|            4051     0.50533216E-007     0.10000000E+002                7
 RTBSE| Simulation step         Convergence     Electron number  ETRS Iterations
 RTBSE|            4052     0.49125422E-007     0.10000000E+002                7
 RTBSE| Simulation step         Convergence     Electron number  ETRS Iterations
 RTBSE|            4053     0.45901291E-007     0.10000000E+002                7
 RTBSE| Simulation step         Convergence     Electron number  ETRS Iterations
 RTBSE|            4054     0.41155618E-007     0.10000000E+002                7
 RTBSE| Simulation step         Convergence     Electron number  ETRS Iterations
 RTBSE|            4055     0.35251412E-007     0.10000000E+002                7
 RTBSE| Simulation step         Convergence     Electron number  ETRS Iterations
 RTBSE|            4056     0.28663096E-007     0.10000000E+002                7
 RTBSE| Simulation step         Convergence     Electron number  ETRS Iterations
 RTBSE|            4057     0.22220495E-007     0.10000000E+002                7
 RTBSE| Simulation step         Convergence     Electron number  ETRS Iterations
 RTBSE|            4058     0.18044545E-007     0.10000000E+002                7
 RTBSE| Simulation step         Convergence     Electron number  ETRS Iterations
 RTBSE|            4059     0.13796504E-007     0.10000000E+002                7
 RTBSE| Simulation step         Convergence     Electron number  ETRS Iterations
 RTBSE|            4060     0.72686624E-007     0.10000000E+002                6
 RTBSE| Simulation step         Convergence     Electron number  ETRS Iterations
 RTBSE|            4061     0.44996907E-007     0.10000000E+002                6
 RTBSE| Simulation step         Convergence     Electron number  ETRS Iterations
 RTBSE|            4062     0.38738548E-007     0.10000000E+002                6
 RTBSE| Simulation step         Convergence     Electron number  ETRS Iterations
 RTBSE|            4063     0.50047651E-007     0.10000000E+002                6
 RTBSE| Simulation step         Convergence     Electron number  ETRS Iterations
 RTBSE|            4064     0.58631051E-007     0.10000000E+002                6
 RTBSE| Simulation step         Convergence     Electron number  ETRS Iterations
 RTBSE|            4065     0.64465698E-007     0.10000000E+002                6
 RTBSE| Simulation step         Convergence     Electron number  ETRS Iterations
 RTBSE|            4066     0.68357687E-007     0.10000000E+002                6
 RTBSE| Simulation step         Convergence     Electron number  ETRS Iterations
 RTBSE|            4067     0.71361116E-007     0.10000000E+002                6
 RTBSE| Simulation step         Convergence     Electron number  ETRS Iterations
 RTBSE|            4068     0.74484492E-007     0.10000000E+002                6
 RTBSE| Simulation step         Convergence     Electron number  ETRS Iterations
 RTBSE|            4069     0.78439960E-007     0.10000000E+002                6
 RTBSE| Simulation step         Convergence     Electron number  ETRS Iterations
 RTBSE|            4070     0.83772423E-007     0.10000000E+002                6
 RTBSE| Simulation step         Convergence     Electron number  ETRS Iterations
 RTBSE|            4071     0.90696020E-007     0.10000000E+002                6
 RTBSE| Simulation step         Convergence     Electron number  ETRS Iterations
 RTBSE|            4072     0.99102426E-007     0.10000000E+002                6
 RTBSE| Simulation step         Convergence     Electron number  ETRS Iterations
 RTBSE|            4073     0.17936342E-007     0.10000000E+002                7
 RTBSE| Simulation step         Convergence     Electron number  ETRS Iterations
 RTBSE|            4074     0.19625100E-007     0.10000000E+002                7
 RTBSE| Simulation step         Convergence     Electron number  ETRS Iterations
 RTBSE|            4075     0.21226171E-007     0.10000000E+002                7
 RTBSE| Simulation step         Convergence     Electron number  ETRS Iterations
 RTBSE|            4076     0.22541406E-007     0.10000000E+002                7
 RTBSE| Simulation step         Convergence     Electron number  ETRS Iterations
 RTBSE|            4077     0.23383970E-007     0.10000000E+002                7
 RTBSE| Simulation step         Convergence     Electron number  ETRS Iterations
 RTBSE|            4078     0.23557148E-007     0.10000000E+002                7
 RTBSE| Simulation step         Convergence     Electron number  ETRS Iterations
 RTBSE|            4079     0.22948997E-007     0.10000000E+002                7
 RTBSE| Simulation step         Convergence     Electron number  ETRS Iterations
 RTBSE|            4080     0.21470543E-007     0.10000000E+002                7
 RTBSE| Simulation step         Convergence     Electron number  ETRS Iterations
 RTBSE|            4081     0.19120082E-007     0.10000000E+002                7
 RTBSE| Simulation step         Convergence     Electron number  ETRS Iterations
 RTBSE|            4082     0.16238143E-007     0.10000000E+002                7
 RTBSE| Simulation step         Convergence     Electron number  ETRS Iterations
 RTBSE|            4083     0.14016557E-007     0.10000000E+002                7
 RTBSE| Simulation step         Convergence     Electron number  ETRS Iterations
 RTBSE|            4084     0.87943713E-007     0.10000000E+002                6
 RTBSE| Simulation step         Convergence     Electron number  ETRS Iterations
 RTBSE|            4085     0.70773019E-007     0.10000000E+002                6
 RTBSE| Simulation step         Convergence     Electron number  ETRS Iterations
 RTBSE|            4086     0.53031288E-007     0.10000000E+002                6
 RTBSE| Simulation step         Convergence     Electron number  ETRS Iterations
 RTBSE|            4087     0.35714293E-007     0.10000000E+002                6
 RTBSE| Simulation step         Convergence     Electron number  ETRS Iterations
 RTBSE|            4088     0.45872676E-007     0.10000000E+002                6
 RTBSE| Simulation step         Convergence     Electron number  ETRS Iterations
 RTBSE|            4089     0.57947362E-007     0.10000000E+002                6
 RTBSE| Simulation step         Convergence     Electron number  ETRS Iterations
 RTBSE|            4090     0.69657467E-007     0.10000000E+002                6
 RTBSE| Simulation step         Convergence     Electron number  ETRS Iterations
 RTBSE|            4091     0.81362149E-007     0.10000000E+002                6
 RTBSE| Simulation step         Convergence     Electron number  ETRS Iterations
 RTBSE|            4092     0.93956689E-007     0.10000000E+002                6
 RTBSE| Simulation step         Convergence     Electron number  ETRS Iterations
 RTBSE|            4093     0.17037958E-007     0.10000000E+002                7
 RTBSE| Simulation step         Convergence     Electron number  ETRS Iterations
 RTBSE|            4094     0.20070800E-007     0.10000000E+002                7
 RTBSE| Simulation step         Convergence     Electron number  ETRS Iterations
 RTBSE|            4095     0.23843647E-007     0.10000000E+002                7
 RTBSE| Simulation step         Convergence     Electron number  ETRS Iterations
 RTBSE|            4096     0.28447000E-007     0.10000000E+002                7
 RTBSE| Simulation step         Convergence     Electron number  ETRS Iterations
 RTBSE|            4097     0.33769942E-007     0.10000000E+002                7
 RTBSE| Simulation step         Convergence     Electron number  ETRS Iterations
 RTBSE|            4098     0.39502900E-007     0.10000000E+002                7
 RTBSE| Simulation step         Convergence     Electron number  ETRS Iterations
 RTBSE|            4099     0.45126049E-007     0.10000000E+002                7
 RTBSE| Simulation step         Convergence     Electron number  ETRS Iterations
 RTBSE|            4100     0.50001673E-007     0.10000000E+002                7
 RTBSE| Simulation step         Convergence     Electron number  ETRS Iterations
 RTBSE|            4101     0.53480037E-007     0.10000000E+002                7
 RTBSE| Simulation step         Convergence     Electron number  ETRS Iterations
 RTBSE|            4102     0.55041131E-007     0.10000000E+002                7
 RTBSE| Simulation step         Convergence     Electron number  ETRS Iterations
 RTBSE|            4103     0.54399813E-007     0.10000000E+002                7
 RTBSE| Simulation step         Convergence     Electron number  ETRS Iterations
 RTBSE|            4104     0.51583507E-007     0.10000000E+002                7
 RTBSE| Simulation step         Convergence     Electron number  ETRS Iterations
 RTBSE|            4105     0.46847149E-007     0.10000000E+002                7
 RTBSE| Simulation step         Convergence     Electron number  ETRS Iterations
 RTBSE|            4106     0.40639260E-007     0.10000000E+002                7
 RTBSE| Simulation step         Convergence     Electron number  ETRS Iterations
 RTBSE|            4107     0.33503087E-007     0.10000000E+002                7
 RTBSE| Simulation step         Convergence     Electron number  ETRS Iterations
 RTBSE|            4108     0.25989368E-007     0.10000000E+002                7
 RTBSE| Simulation step         Convergence     Electron number  ETRS Iterations
 RTBSE|            4109     0.20413486E-007     0.10000000E+002                7
 RTBSE| Simulation step         Convergence     Electron number  ETRS Iterations
 RTBSE|            4110     0.15936739E-007     0.10000000E+002                7
 RTBSE| Simulation step         Convergence     Electron number  ETRS Iterations
 RTBSE|            4111     0.87647217E-007     0.10000000E+002                6
 RTBSE| Simulation step         Convergence     Electron number  ETRS Iterations
 RTBSE|            4112     0.57316124E-007     0.10000000E+002                6
 RTBSE| Simulation step         Convergence     Electron number  ETRS Iterations
 RTBSE|            4113     0.34605448E-007     0.10000000E+002                6
 RTBSE| Simulation step         Convergence     Electron number  ETRS Iterations
 RTBSE|            4114     0.46834412E-007     0.10000000E+002                6
 RTBSE| Simulation step         Convergence     Electron number  ETRS Iterations
 RTBSE|            4115     0.57185477E-007     0.10000000E+002                6
 RTBSE| Simulation step         Convergence     Electron number  ETRS Iterations
 RTBSE|            4116     0.64571422E-007     0.10000000E+002                6
 RTBSE| Simulation step         Convergence     Electron number  ETRS Iterations
 RTBSE|            4117     0.69393991E-007     0.10000000E+002                6
 RTBSE| Simulation step         Convergence     Electron number  ETRS Iterations
 RTBSE|            4118     0.72434881E-007     0.10000000E+002                6
 RTBSE| Simulation step         Convergence     Electron number  ETRS Iterations
 RTBSE|            4119     0.74669694E-007     0.10000000E+002                6
 RTBSE| Simulation step         Convergence     Electron number  ETRS Iterations
 RTBSE|            4120     0.76925564E-007     0.10000000E+002                6
 RTBSE| Simulation step         Convergence     Electron number  ETRS Iterations
 RTBSE|            4121     0.79945095E-007     0.10000000E+002                6
 RTBSE| Simulation step         Convergence     Electron number  ETRS Iterations
 RTBSE|            4122     0.84259864E-007     0.10000000E+002                6
 RTBSE| Simulation step         Convergence     Electron number  ETRS Iterations
 RTBSE|            4123     0.90039202E-007     0.10000000E+002                6
 RTBSE| Simulation step         Convergence     Electron number  ETRS Iterations
 RTBSE|            4124     0.97266175E-007     0.10000000E+002                6
 RTBSE| Simulation step         Convergence     Electron number  ETRS Iterations
 RTBSE|            4125     0.17360001E-007     0.10000000E+002                7
 RTBSE| Simulation step         Convergence     Electron number  ETRS Iterations
 RTBSE|            4126     0.18884176E-007     0.10000000E+002                7
 RTBSE| Simulation step         Convergence     Electron number  ETRS Iterations
 RTBSE|            4127     0.20364742E-007     0.10000000E+002                7
 RTBSE| Simulation step         Convergence     Electron number  ETRS Iterations
 RTBSE|            4128     0.21667582E-007     0.10000000E+002                7
 RTBSE| Simulation step         Convergence     Electron number  ETRS Iterations
 RTBSE|            4129     0.22603975E-007     0.10000000E+002                7
 RTBSE| Simulation step         Convergence     Electron number  ETRS Iterations
 RTBSE|            4130     0.23027337E-007     0.10000000E+002                7
 RTBSE| Simulation step         Convergence     Electron number  ETRS Iterations
 RTBSE|            4131     0.22780824E-007     0.10000000E+002                7
 RTBSE| Simulation step         Convergence     Electron number  ETRS Iterations
 RTBSE|            4132     0.21787149E-007     0.10000000E+002                7
 RTBSE| Simulation step         Convergence     Electron number  ETRS Iterations
 RTBSE|            4133     0.20014078E-007     0.10000000E+002                7
 RTBSE| Simulation step         Convergence     Electron number  ETRS Iterations
 RTBSE|            4134     0.17480311E-007     0.10000000E+002                7
 RTBSE| Simulation step         Convergence     Electron number  ETRS Iterations
 RTBSE|            4135     0.15199581E-007     0.10000000E+002                7
 RTBSE| Simulation step         Convergence     Electron number  ETRS Iterations
 RTBSE|            4136     0.12956466E-007     0.10000000E+002                7
 RTBSE| Simulation step         Convergence     Electron number  ETRS Iterations
 RTBSE|            4137     0.84922296E-007     0.10000000E+002                6
 RTBSE| Simulation step         Convergence     Electron number  ETRS Iterations
 RTBSE|            4138     0.67334104E-007     0.10000000E+002                6
 RTBSE| Simulation step         Convergence     Electron number  ETRS Iterations
 RTBSE|            4139     0.49104626E-007     0.10000000E+002                6
 RTBSE| Simulation step         Convergence     Electron number  ETRS Iterations
 RTBSE|            4140     0.43070127E-007     0.10000000E+002                6
 RTBSE| Simulation step         Convergence     Electron number  ETRS Iterations
 RTBSE|            4141     0.56956659E-007     0.10000000E+002                6
 RTBSE| Simulation step         Convergence     Electron number  ETRS Iterations
 RTBSE|            4142     0.71545922E-007     0.10000000E+002                6
 RTBSE| Simulation step         Convergence     Electron number  ETRS Iterations
 RTBSE|            4143     0.86956700E-007     0.10000000E+002                6
 RTBSE| Simulation step         Convergence     Electron number  ETRS Iterations
 RTBSE|            4144     0.16036539E-007     0.10000000E+002                7
 RTBSE| Simulation step         Convergence     Electron number  ETRS Iterations
 RTBSE|            4145     0.19531320E-007     0.10000000E+002                7
 RTBSE| Simulation step         Convergence     Electron number  ETRS Iterations
 RTBSE|            4146     0.23746903E-007     0.10000000E+002                7
 RTBSE| Simulation step         Convergence     Electron number  ETRS Iterations
 RTBSE|            4147     0.28772446E-007     0.10000000E+002                7
 RTBSE| Simulation step         Convergence     Electron number  ETRS Iterations
 RTBSE|            4148     0.34552396E-007     0.10000000E+002                7
 RTBSE| Simulation step         Convergence     Electron number  ETRS Iterations
 RTBSE|            4149     0.40766745E-007     0.10000000E+002                7
 RTBSE| Simulation step         Convergence     Electron number  ETRS Iterations
 RTBSE|            4150     0.46861256E-007     0.10000000E+002                7
 RTBSE| Simulation step         Convergence     Electron number  ETRS Iterations
 RTBSE|            4151     0.52193791E-007     0.10000000E+002                7
 RTBSE| Simulation step         Convergence     Electron number  ETRS Iterations
 RTBSE|            4152     0.56065188E-007     0.10000000E+002                7
 RTBSE| Simulation step         Convergence     Electron number  ETRS Iterations
 RTBSE|            4153     0.57964047E-007     0.10000000E+002                7
 RTBSE| Simulation step         Convergence     Electron number  ETRS Iterations
 RTBSE|            4154     0.57594921E-007     0.10000000E+002                7
 RTBSE| Simulation step         Convergence     Electron number  ETRS Iterations
 RTBSE|            4155     0.54993356E-007     0.10000000E+002                7
 RTBSE| Simulation step         Convergence     Electron number  ETRS Iterations
 RTBSE|            4156     0.50402493E-007     0.10000000E+002                7
 RTBSE| Simulation step         Convergence     Electron number  ETRS Iterations
 RTBSE|            4157     0.44313576E-007     0.10000000E+002                7
 RTBSE| Simulation step         Convergence     Electron number  ETRS Iterations
 RTBSE|            4158     0.37237722E-007     0.10000000E+002                7
 RTBSE| Simulation step         Convergence     Electron number  ETRS Iterations
 RTBSE|            4159     0.29723813E-007     0.10000000E+002                7
 RTBSE| Simulation step         Convergence     Electron number  ETRS Iterations
 RTBSE|            4160     0.22384786E-007     0.10000000E+002                7
 RTBSE| Simulation step         Convergence     Electron number  ETRS Iterations
 RTBSE|            4161     0.18008071E-007     0.10000000E+002                7
 RTBSE| Simulation step         Convergence     Electron number  ETRS Iterations
 RTBSE|            4162     0.13695670E-007     0.10000000E+002                7
 RTBSE| Simulation step         Convergence     Electron number  ETRS Iterations
 RTBSE|            4163     0.72564150E-007     0.10000000E+002                6
 RTBSE| Simulation step         Convergence     Electron number  ETRS Iterations
 RTBSE|            4164     0.43905706E-007     0.10000000E+002                6
 RTBSE| Simulation step         Convergence     Electron number  ETRS Iterations
 RTBSE|            4165     0.40656748E-007     0.10000000E+002                6
 RTBSE| Simulation step         Convergence     Electron number  ETRS Iterations
 RTBSE|            4166     0.52284276E-007     0.10000000E+002                6
 RTBSE| Simulation step         Convergence     Electron number  ETRS Iterations
 RTBSE|            4167     0.60906270E-007     0.10000000E+002                6
 RTBSE| Simulation step         Convergence     Electron number  ETRS Iterations
 RTBSE|            4168     0.66278955E-007     0.10000000E+002                6
 RTBSE| Simulation step         Convergence     Electron number  ETRS Iterations
 RTBSE|            4169     0.69057535E-007     0.10000000E+002                6
 RTBSE| Simulation step         Convergence     Electron number  ETRS Iterations
 RTBSE|            4170     0.70286815E-007     0.10000000E+002                6
 RTBSE| Simulation step         Convergence     Electron number  ETRS Iterations
 RTBSE|            4171     0.71010910E-007     0.10000000E+002                6
 RTBSE| Simulation step         Convergence     Electron number  ETRS Iterations
 RTBSE|            4172     0.72259919E-007     0.10000000E+002                6
 RTBSE| Simulation step         Convergence     Electron number  ETRS Iterations
 RTBSE|            4173     0.74889967E-007     0.10000000E+002                6
 RTBSE| Simulation step         Convergence     Electron number  ETRS Iterations
 RTBSE|            4174     0.79491016E-007     0.10000000E+002                6
 RTBSE| Simulation step         Convergence     Electron number  ETRS Iterations
 RTBSE|            4175     0.86269344E-007     0.10000000E+002                6
 RTBSE| Simulation step         Convergence     Electron number  ETRS Iterations
 RTBSE|            4176     0.95112842E-007     0.10000000E+002                6
 RTBSE| Simulation step         Convergence     Electron number  ETRS Iterations
 RTBSE|            4177     0.17126329E-007     0.10000000E+002                7
 RTBSE| Simulation step         Convergence     Electron number  ETRS Iterations
 RTBSE|            4178     0.19049018E-007     0.10000000E+002                7
 RTBSE| Simulation step         Convergence     Electron number  ETRS Iterations
 RTBSE|            4179     0.20984937E-007     0.10000000E+002                7
 RTBSE| Simulation step         Convergence     Electron number  ETRS Iterations
 RTBSE|            4180     0.22736449E-007     0.10000000E+002                7
 RTBSE| Simulation step         Convergence     Electron number  ETRS Iterations
 RTBSE|            4181     0.24079116E-007     0.10000000E+002                7
 RTBSE| Simulation step         Convergence     Electron number  ETRS Iterations
 RTBSE|            4182     0.24809544E-007     0.10000000E+002                7
 RTBSE| Simulation step         Convergence     Electron number  ETRS Iterations
 RTBSE|            4183     0.24745234E-007     0.10000000E+002                7
 RTBSE| Simulation step         Convergence     Electron number  ETRS Iterations
 RTBSE|            4184     0.23750184E-007     0.10000000E+002                7
 RTBSE| Simulation step         Convergence     Electron number  ETRS Iterations
 RTBSE|            4185     0.21775353E-007     0.10000000E+002                7
 RTBSE| Simulation step         Convergence     Electron number  ETRS Iterations
 RTBSE|            4186     0.18924735E-007     0.10000000E+002                7
 RTBSE| Simulation step         Convergence     Electron number  ETRS Iterations
 RTBSE|            4187     0.16304097E-007     0.10000000E+002                7
 RTBSE| Simulation step         Convergence     Electron number  ETRS Iterations
 RTBSE|            4188     0.13791496E-007     0.10000000E+002                7
 RTBSE| Simulation step         Convergence     Electron number  ETRS Iterations
 RTBSE|            4189     0.91642764E-007     0.10000000E+002                6
 RTBSE| Simulation step         Convergence     Electron number  ETRS Iterations
 RTBSE|            4190     0.72101055E-007     0.10000000E+002                6
 RTBSE| Simulation step         Convergence     Electron number  ETRS Iterations
 RTBSE|            4191     0.52010323E-007     0.10000000E+002                6
 RTBSE| Simulation step         Convergence     Electron number  ETRS Iterations
 RTBSE|            4192     0.48750063E-007     0.10000000E+002                6
 RTBSE| Simulation step         Convergence     Electron number  ETRS Iterations
 RTBSE|            4193     0.65289856E-007     0.10000000E+002                6
 RTBSE| Simulation step         Convergence     Electron number  ETRS Iterations
 RTBSE|            4194     0.83419531E-007     0.10000000E+002                6
 RTBSE| Simulation step         Convergence     Electron number  ETRS Iterations
 RTBSE|            4195     0.15857742E-007     0.10000000E+002                7
 RTBSE| Simulation step         Convergence     Electron number  ETRS Iterations
 RTBSE|            4196     0.19838665E-007     0.10000000E+002                7
 RTBSE| Simulation step         Convergence     Electron number  ETRS Iterations
 RTBSE|            4197     0.24339734E-007     0.10000000E+002                7
 RTBSE| Simulation step         Convergence     Electron number  ETRS Iterations
 RTBSE|            4198     0.29405791E-007     0.10000000E+002                7
 RTBSE| Simulation step         Convergence     Electron number  ETRS Iterations
 RTBSE|            4199     0.35009101E-007     0.10000000E+002                7
 RTBSE| Simulation step         Convergence     Electron number  ETRS Iterations
 RTBSE|            4200     0.40884682E-007     0.10000000E+002                7
 RTBSE| Simulation step         Convergence     Electron number  ETRS Iterations
 RTBSE|            4201     0.46620378E-007     0.10000000E+002                7
 RTBSE| Simulation step         Convergence     Electron number  ETRS Iterations
 RTBSE|            4202     0.51692966E-007     0.10000000E+002                7
 RTBSE| Simulation step         Convergence     Electron number  ETRS Iterations
 RTBSE|            4203     0.55570215E-007     0.10000000E+002                7
 RTBSE| Simulation step         Convergence     Electron number  ETRS Iterations
 RTBSE|            4204     0.57770417E-007     0.10000000E+002                7
 RTBSE| Simulation step         Convergence     Electron number  ETRS Iterations
 RTBSE|            4205     0.58013199E-007     0.10000000E+002                7
 RTBSE| Simulation step         Convergence     Electron number  ETRS Iterations
 RTBSE|            4206     0.56232603E-007     0.10000000E+002                7
 RTBSE| Simulation step         Convergence     Electron number  ETRS Iterations
 RTBSE|            4207     0.52572627E-007     0.10000000E+002                7
 RTBSE| Simulation step         Convergence     Electron number  ETRS Iterations
 RTBSE|            4208     0.47361825E-007     0.10000000E+002                7
 RTBSE| Simulation step         Convergence     Electron number  ETRS Iterations
 RTBSE|            4209     0.40987374E-007     0.10000000E+002                7
 RTBSE| Simulation step         Convergence     Electron number  ETRS Iterations
 RTBSE|            4210     0.33895933E-007     0.10000000E+002                7
 RTBSE| Simulation step         Convergence     Electron number  ETRS Iterations
 RTBSE|            4211     0.26520782E-007     0.10000000E+002                7
 RTBSE| Simulation step         Convergence     Electron number  ETRS Iterations
 RTBSE|            4212     0.20154743E-007     0.10000000E+002                7
 RTBSE| Simulation step         Convergence     Electron number  ETRS Iterations
 RTBSE|            4213     0.15934064E-007     0.10000000E+002                7
 RTBSE| Simulation step         Convergence     Electron number  ETRS Iterations
 RTBSE|            4214     0.91624143E-007     0.10000000E+002                6
 RTBSE| Simulation step         Convergence     Electron number  ETRS Iterations
 RTBSE|            4215     0.61323865E-007     0.10000000E+002                6
 RTBSE| Simulation step         Convergence     Electron number  ETRS Iterations
 RTBSE|            4216     0.35382587E-007     0.10000000E+002                6
 RTBSE| Simulation step         Convergence     Electron number  ETRS Iterations
 RTBSE|            4217     0.40661425E-007     0.10000000E+002                6
 RTBSE| Simulation step         Convergence     Electron number  ETRS Iterations
 RTBSE|            4218     0.49865706E-007     0.10000000E+002                6
 RTBSE| Simulation step         Convergence     Electron number  ETRS Iterations
 RTBSE|            4219     0.56132042E-007     0.10000000E+002                6
 RTBSE| Simulation step         Convergence     Electron number  ETRS Iterations
 RTBSE|            4220     0.59878440E-007     0.10000000E+002                6
 RTBSE| Simulation step         Convergence     Electron number  ETRS Iterations
 RTBSE|            4221     0.61990293E-007     0.10000000E+002                6
 RTBSE| Simulation step         Convergence     Electron number  ETRS Iterations
 RTBSE|            4222     0.63593029E-007     0.10000000E+002                6
 RTBSE| Simulation step         Convergence     Electron number  ETRS Iterations
 RTBSE|            4223     0.65718347E-007     0.10000000E+002                6
 RTBSE| Simulation step         Convergence     Electron number  ETRS Iterations
 RTBSE|            4224     0.69262499E-007     0.10000000E+002                6
 RTBSE| Simulation step         Convergence     Electron number  ETRS Iterations
 RTBSE|            4225     0.74847781E-007     0.10000000E+002                6
 RTBSE| Simulation step         Convergence     Electron number  ETRS Iterations
 RTBSE|            4226     0.82782464E-007     0.10000000E+002                6
 RTBSE| Simulation step         Convergence     Electron number  ETRS Iterations
 RTBSE|            4227     0.92949487E-007     0.10000000E+002                6
 RTBSE| Simulation step         Convergence     Electron number  ETRS Iterations
 RTBSE|            4228     0.16766965E-007     0.10000000E+002                7
 RTBSE| Simulation step         Convergence     Electron number  ETRS Iterations
 RTBSE|            4229     0.18974042E-007     0.10000000E+002                7
 RTBSE| Simulation step         Convergence     Electron number  ETRS Iterations
 RTBSE|            4230     0.21243666E-007     0.10000000E+002                7
 RTBSE| Simulation step         Convergence     Electron number  ETRS Iterations
 RTBSE|            4231     0.23348219E-007     0.10000000E+002                7
 RTBSE| Simulation step         Convergence     Electron number  ETRS Iterations
 RTBSE|            4232     0.25091154E-007     0.10000000E+002                7
 RTBSE| Simulation step         Convergence     Electron number  ETRS Iterations
 RTBSE|            4233     0.26227451E-007     0.10000000E+002                7
 RTBSE| Simulation step         Convergence     Electron number  ETRS Iterations
 RTBSE|            4234     0.26601591E-007     0.10000000E+002                7
 RTBSE| Simulation step         Convergence     Electron number  ETRS Iterations
 RTBSE|            4235     0.26054311E-007     0.10000000E+002                7
 RTBSE| Simulation step         Convergence     Electron number  ETRS Iterations
 RTBSE|            4236     0.24553899E-007     0.10000000E+002                7
 RTBSE| Simulation step         Convergence     Electron number  ETRS Iterations
 RTBSE|            4237     0.22096304E-007     0.10000000E+002                7
 RTBSE| Simulation step         Convergence     Electron number  ETRS Iterations
 RTBSE|            4238     0.18815014E-007     0.10000000E+002                7
 RTBSE| Simulation step         Convergence     Electron number  ETRS Iterations
 RTBSE|            4239     0.16311022E-007     0.10000000E+002                7
 RTBSE| Simulation step         Convergence     Electron number  ETRS Iterations
 RTBSE|            4240     0.13608857E-007     0.10000000E+002                7
 RTBSE| Simulation step         Convergence     Electron number  ETRS Iterations
 RTBSE|            4241     0.90897398E-007     0.10000000E+002                6
 RTBSE| Simulation step         Convergence     Electron number  ETRS Iterations
 RTBSE|            4242     0.69097007E-007     0.10000000E+002                6
 RTBSE| Simulation step         Convergence     Electron number  ETRS Iterations
 RTBSE|            4243     0.46317257E-007     0.10000000E+002                6
 RTBSE| Simulation step         Convergence     Electron number  ETRS Iterations
 RTBSE|            4244     0.60295880E-007     0.10000000E+002                6
 RTBSE| Simulation step         Convergence     Electron number  ETRS Iterations
 RTBSE|            4245     0.80152895E-007     0.10000000E+002                6
 RTBSE| Simulation step         Convergence     Electron number  ETRS Iterations
 RTBSE|            4246     0.15579638E-007     0.10000000E+002                7
 RTBSE| Simulation step         Convergence     Electron number  ETRS Iterations
 RTBSE|            4247     0.19639403E-007     0.10000000E+002                7
 RTBSE| Simulation step         Convergence     Electron number  ETRS Iterations
 RTBSE|            4248     0.23922324E-007     0.10000000E+002                7
 RTBSE| Simulation step         Convergence     Electron number  ETRS Iterations
 RTBSE|            4249     0.28572633E-007     0.10000000E+002                7
 RTBSE| Simulation step         Convergence     Electron number  ETRS Iterations
 RTBSE|            4250     0.33631485E-007     0.10000000E+002                7
 RTBSE| Simulation step         Convergence     Electron number  ETRS Iterations
 RTBSE|            4251     0.38995417E-007     0.10000000E+002                7
 RTBSE| Simulation step         Convergence     Electron number  ETRS Iterations
 RTBSE|            4252     0.44480538E-007     0.10000000E+002                7
 RTBSE| Simulation step         Convergence     Electron number  ETRS Iterations
 RTBSE|            4253     0.49672384E-007     0.10000000E+002                7
 RTBSE| Simulation step         Convergence     Electron number  ETRS Iterations
 RTBSE|            4254     0.54068994E-007     0.10000000E+002                7
 RTBSE| Simulation step         Convergence     Electron number  ETRS Iterations
 RTBSE|            4255     0.57161882E-007     0.10000000E+002                7
 RTBSE| Simulation step         Convergence     Electron number  ETRS Iterations
 RTBSE|            4256     0.58529253E-007     0.10000000E+002                7
 RTBSE| Simulation step         Convergence     Electron number  ETRS Iterations
 RTBSE|            4257     0.57934443E-007     0.10000000E+002                7
 RTBSE| Simulation step         Convergence     Electron number  ETRS Iterations
 RTBSE|            4258     0.55339618E-007     0.10000000E+002                7
 RTBSE| Simulation step         Convergence     Electron number  ETRS Iterations
 RTBSE|            4259     0.50942554E-007     0.10000000E+002                7
 RTBSE| Simulation step         Convergence     Electron number  ETRS Iterations
 RTBSE|            4260     0.45107841E-007     0.10000000E+002                7
 RTBSE| Simulation step         Convergence     Electron number  ETRS Iterations
 RTBSE|            4261     0.38283633E-007     0.10000000E+002                7
 RTBSE| Simulation step         Convergence     Electron number  ETRS Iterations
 RTBSE|            4262     0.31002979E-007     0.10000000E+002                7
 RTBSE| Simulation step         Convergence     Electron number  ETRS Iterations
 RTBSE|            4263     0.23729173E-007     0.10000000E+002                7
 RTBSE| Simulation step         Convergence     Electron number  ETRS Iterations
 RTBSE|            4264     0.18268458E-007     0.10000000E+002                7
 RTBSE| Simulation step         Convergence     Electron number  ETRS Iterations
 RTBSE|            4265     0.14391462E-007     0.10000000E+002                7
 RTBSE| Simulation step         Convergence     Electron number  ETRS Iterations
 RTBSE|            4266     0.83348415E-007     0.10000000E+002                6
 RTBSE| Simulation step         Convergence     Electron number  ETRS Iterations
 RTBSE|            4267     0.57010115E-007     0.10000000E+002                6
 RTBSE| Simulation step         Convergence     Electron number  ETRS Iterations
 RTBSE|            4268     0.35035955E-007     0.10000000E+002                6
 RTBSE| Simulation step         Convergence     Electron number  ETRS Iterations
 RTBSE|            4269     0.36428703E-007     0.10000000E+002                6
 RTBSE| Simulation step         Convergence     Electron number  ETRS Iterations
 RTBSE|            4270     0.44580406E-007     0.10000000E+002                6
 RTBSE| Simulation step         Convergence     Electron number  ETRS Iterations
 RTBSE|            4271     0.51181978E-007     0.10000000E+002                6
 RTBSE| Simulation step         Convergence     Electron number  ETRS Iterations
 RTBSE|            4272     0.56500088E-007     0.10000000E+002                6
 RTBSE| Simulation step         Convergence     Electron number  ETRS Iterations
 RTBSE|            4273     0.61158189E-007     0.10000000E+002                6
 RTBSE| Simulation step         Convergence     Electron number  ETRS Iterations
 RTBSE|            4274     0.65961271E-007     0.10000000E+002                6
 RTBSE| Simulation step         Convergence     Electron number  ETRS Iterations
 RTBSE|            4275     0.71600384E-007     0.10000000E+002                6
 RTBSE| Simulation step         Convergence     Electron number  ETRS Iterations
 RTBSE|            4276     0.78534117E-007     0.10000000E+002                6
 RTBSE| Simulation step         Convergence     Electron number  ETRS Iterations
 RTBSE|            4277     0.87031936E-007     0.10000000E+002                6
 RTBSE| Simulation step         Convergence     Electron number  ETRS Iterations
 RTBSE|            4278     0.97062061E-007     0.10000000E+002                6
 RTBSE| Simulation step         Convergence     Electron number  ETRS Iterations
 RTBSE|            4279     0.17211253E-007     0.10000000E+002                7
 RTBSE| Simulation step         Convergence     Electron number  ETRS Iterations
 RTBSE|            4280     0.19268732E-007     0.10000000E+002                7
 RTBSE| Simulation step         Convergence     Electron number  ETRS Iterations
 RTBSE|            4281     0.21359780E-007     0.10000000E+002                7
 RTBSE| Simulation step         Convergence     Electron number  ETRS Iterations
 RTBSE|            4282     0.23341722E-007     0.10000000E+002                7
 RTBSE| Simulation step         Convergence     Electron number  ETRS Iterations
 RTBSE|            4283     0.25069464E-007     0.10000000E+002                7
 RTBSE| Simulation step         Convergence     Electron number  ETRS Iterations
 RTBSE|            4284     0.26314691E-007     0.10000000E+002                7
 RTBSE| Simulation step         Convergence     Electron number  ETRS Iterations
 RTBSE|            4285     0.26948036E-007     0.10000000E+002                7
 RTBSE| Simulation step         Convergence     Electron number  ETRS Iterations
 RTBSE|            4286     0.26805428E-007     0.10000000E+002                7
 RTBSE| Simulation step         Convergence     Electron number  ETRS Iterations
 RTBSE|            4287     0.25766227E-007     0.10000000E+002                7
 RTBSE| Simulation step         Convergence     Electron number  ETRS Iterations
 RTBSE|            4288     0.23812265E-007     0.10000000E+002                7
 RTBSE| Simulation step         Convergence     Electron number  ETRS Iterations
 RTBSE|            4289     0.20932421E-007     0.10000000E+002                7
 RTBSE| Simulation step         Convergence     Electron number  ETRS Iterations
 RTBSE|            4290     0.17797358E-007     0.10000000E+002                7
 RTBSE| Simulation step         Convergence     Electron number  ETRS Iterations
 RTBSE|            4291     0.15218620E-007     0.10000000E+002                7
 RTBSE| Simulation step         Convergence     Electron number  ETRS Iterations
 RTBSE|            4292     0.12396390E-007     0.10000000E+002                7
 RTBSE| Simulation step         Convergence     Electron number  ETRS Iterations
 RTBSE|            4293     0.80122622E-007     0.10000000E+002                6
 RTBSE| Simulation step         Convergence     Electron number  ETRS Iterations
 RTBSE|            4294     0.56488001E-007     0.10000000E+002                6
 RTBSE| Simulation step         Convergence     Electron number  ETRS Iterations
 RTBSE|            4295     0.52068470E-007     0.10000000E+002                6
 RTBSE| Simulation step         Convergence     Electron number  ETRS Iterations
 RTBSE|            4296     0.70773865E-007     0.10000000E+002                6
 RTBSE| Simulation step         Convergence     Electron number  ETRS Iterations
 RTBSE|            4297     0.90591240E-007     0.10000000E+002                6
 RTBSE| Simulation step         Convergence     Electron number  ETRS Iterations
 RTBSE|            4298     0.17608341E-007     0.10000000E+002                7
 RTBSE| Simulation step         Convergence     Electron number  ETRS Iterations
 RTBSE|            4299     0.21636910E-007     0.10000000E+002                7
 RTBSE| Simulation step         Convergence     Electron number  ETRS Iterations
 RTBSE|            4300     0.26094444E-007     0.10000000E+002                7
 RTBSE| Simulation step         Convergence     Electron number  ETRS Iterations
 RTBSE|            4301     0.31072975E-007     0.10000000E+002                7
 RTBSE| Simulation step         Convergence     Electron number  ETRS Iterations
 RTBSE|            4302     0.36578458E-007     0.10000000E+002                7
 RTBSE| Simulation step         Convergence     Electron number  ETRS Iterations
 RTBSE|            4303     0.42411990E-007     0.10000000E+002                7
 RTBSE| Simulation step         Convergence     Electron number  ETRS Iterations
 RTBSE|            4304     0.48152676E-007     0.10000000E+002                7
 RTBSE| Simulation step         Convergence     Electron number  ETRS Iterations
 RTBSE|            4305     0.53257989E-007     0.10000000E+002                7
 RTBSE| Simulation step         Convergence     Electron number  ETRS Iterations
 RTBSE|            4306     0.57135233E-007     0.10000000E+002                7
 RTBSE| Simulation step         Convergence     Electron number  ETRS Iterations
 RTBSE|            4307     0.59305491E-007     0.10000000E+002                7
 RTBSE| Simulation step         Convergence     Electron number  ETRS Iterations
 RTBSE|            4308     0.59440481E-007     0.10000000E+002                7
 RTBSE| Simulation step         Convergence     Electron number  ETRS Iterations
 RTBSE|            4309     0.57494454E-007     0.10000000E+002                7
 RTBSE| Simulation step         Convergence     Electron number  ETRS Iterations
 RTBSE|            4310     0.53643756E-007     0.10000000E+002                7
 RTBSE| Simulation step         Convergence     Electron number  ETRS Iterations
 RTBSE|            4311     0.48285785E-007     0.10000000E+002                7
 RTBSE| Simulation step         Convergence     Electron number  ETRS Iterations
 RTBSE|            4312     0.41892993E-007     0.10000000E+002                7
 RTBSE| Simulation step         Convergence     Electron number  ETRS Iterations
 RTBSE|            4313     0.34962019E-007     0.10000000E+002                7
 RTBSE| Simulation step         Convergence     Electron number  ETRS Iterations
 RTBSE|            4314     0.27962927E-007     0.10000000E+002                7
 RTBSE| Simulation step         Convergence     Electron number  ETRS Iterations
 RTBSE|            4315     0.21269814E-007     0.10000000E+002                7
 RTBSE| Simulation step         Convergence     Electron number  ETRS Iterations
 RTBSE|            4316     0.16987807E-007     0.10000000E+002                7
 RTBSE| Simulation step         Convergence     Electron number  ETRS Iterations
 RTBSE|            4317     0.13608783E-007     0.10000000E+002                7
 RTBSE| Simulation step         Convergence     Electron number  ETRS Iterations
 RTBSE|            4318     0.79618239E-007     0.10000000E+002                6
 RTBSE| Simulation step         Convergence     Electron number  ETRS Iterations
 RTBSE|            4319     0.55570996E-007     0.10000000E+002                6
 RTBSE| Simulation step         Convergence     Electron number  ETRS Iterations
 RTBSE|            4320     0.34936137E-007     0.10000000E+002                6
 RTBSE| Simulation step         Convergence     Electron number  ETRS Iterations
 RTBSE|            4321     0.36945668E-007     0.10000000E+002                6
 RTBSE| Simulation step         Convergence     Electron number  ETRS Iterations
 RTBSE|            4322     0.46135126E-007     0.10000000E+002                6
 RTBSE| Simulation step         Convergence     Electron number  ETRS Iterations
 RTBSE|            4323     0.54443700E-007     0.10000000E+002                6
 RTBSE| Simulation step         Convergence     Electron number  ETRS Iterations
 RTBSE|            4324     0.61817706E-007     0.10000000E+002                6
 RTBSE| Simulation step         Convergence     Electron number  ETRS Iterations
 RTBSE|            4325     0.68614280E-007     0.10000000E+002                6
 RTBSE| Simulation step         Convergence     Electron number  ETRS Iterations
 RTBSE|            4326     0.75357268E-007     0.10000000E+002                6
 RTBSE| Simulation step         Convergence     Electron number  ETRS Iterations
 RTBSE|            4327     0.82475309E-007     0.10000000E+002                6
 RTBSE| Simulation step         Convergence     Electron number  ETRS Iterations
 RTBSE|            4328     0.90369771E-007     0.10000000E+002                6
 RTBSE| Simulation step         Convergence     Electron number  ETRS Iterations
 RTBSE|            4329     0.99235204E-007     0.10000000E+002                6
 RTBSE| Simulation step         Convergence     Electron number  ETRS Iterations
 RTBSE|            4330     0.17246345E-007     0.10000000E+002                7
 RTBSE| Simulation step         Convergence     Electron number  ETRS Iterations
 RTBSE|            4331     0.19056205E-007     0.10000000E+002                7
 RTBSE| Simulation step         Convergence     Electron number  ETRS Iterations
 RTBSE|            4332     0.20906561E-007     0.10000000E+002                7
 RTBSE| Simulation step         Convergence     Electron number  ETRS Iterations
 RTBSE|            4333     0.22720464E-007     0.10000000E+002                7
 RTBSE| Simulation step         Convergence     Electron number  ETRS Iterations
 RTBSE|            4334     0.24340827E-007     0.10000000E+002                7
 RTBSE| Simulation step         Convergence     Electron number  ETRS Iterations
 RTBSE|            4335     0.25606703E-007     0.10000000E+002                7
 RTBSE| Simulation step         Convergence     Electron number  ETRS Iterations
 RTBSE|            4336     0.26348168E-007     0.10000000E+002                7
 RTBSE| Simulation step         Convergence     Electron number  ETRS Iterations
 RTBSE|            4337     0.26390779E-007     0.10000000E+002                7
 RTBSE| Simulation step         Convergence     Electron number  ETRS Iterations
 RTBSE|            4338     0.25620018E-007     0.10000000E+002                7
 RTBSE| Simulation step         Convergence     Electron number  ETRS Iterations
 RTBSE|            4339     0.23964175E-007     0.10000000E+002                7
 RTBSE| Simulation step         Convergence     Electron number  ETRS Iterations
 RTBSE|            4340     0.21463558E-007     0.10000000E+002                7
 RTBSE| Simulation step         Convergence     Electron number  ETRS Iterations
 RTBSE|            4341     0.18228506E-007     0.10000000E+002                7
 RTBSE| Simulation step         Convergence     Electron number  ETRS Iterations
 RTBSE|            4342     0.15707747E-007     0.10000000E+002                7
 RTBSE| Simulation step         Convergence     Electron number  ETRS Iterations
 RTBSE|            4343     0.13214316E-007     0.10000000E+002                7
 RTBSE| Simulation step         Convergence     Electron number  ETRS Iterations
 RTBSE|            4344     0.89591784E-007     0.10000000E+002                6
 RTBSE| Simulation step         Convergence     Electron number  ETRS Iterations
 RTBSE|            4345     0.70164018E-007     0.10000000E+002                6
 RTBSE| Simulation step         Convergence     Electron number  ETRS Iterations
 RTBSE|            4346     0.50786100E-007     0.10000000E+002                6
 RTBSE| Simulation step         Convergence     Electron number  ETRS Iterations
 RTBSE|            4347     0.51364777E-007     0.10000000E+002                6
 RTBSE| Simulation step         Convergence     Electron number  ETRS Iterations
 RTBSE|            4348     0.68899393E-007     0.10000000E+002                6
 RTBSE| Simulation step         Convergence     Electron number  ETRS Iterations
 RTBSE|            4349     0.89110498E-007     0.10000000E+002                6
 RTBSE| Simulation step         Convergence     Electron number  ETRS Iterations
 RTBSE|            4350     0.17607928E-007     0.10000000E+002                7
 RTBSE| Simulation step         Convergence     Electron number  ETRS Iterations
 RTBSE|            4351     0.22536794E-007     0.10000000E+002                7
 RTBSE| Simulation step         Convergence     Electron number  ETRS Iterations
 RTBSE|            4352     0.28122541E-007     0.10000000E+002                7
 RTBSE| Simulation step         Convergence     Electron number  ETRS Iterations
 RTBSE|            4353     0.34270205E-007     0.10000000E+002                7
 RTBSE| Simulation step         Convergence     Electron number  ETRS Iterations
 RTBSE|            4354     0.40699238E-007     0.10000000E+002                7
 RTBSE| Simulation step         Convergence     Electron number  ETRS Iterations
 RTBSE|            4355     0.46985783E-007     0.10000000E+002                7
 RTBSE| Simulation step         Convergence     Electron number  ETRS Iterations
 RTBSE|            4356     0.52597652E-007     0.10000000E+002                7
 RTBSE| Simulation step         Convergence     Electron number  ETRS Iterations
 RTBSE|            4357     0.56989070E-007     0.10000000E+002                7
 RTBSE| Simulation step         Convergence     Electron number  ETRS Iterations
 RTBSE|            4358     0.59684125E-007     0.10000000E+002                7
 RTBSE| Simulation step         Convergence     Electron number  ETRS Iterations
 RTBSE|            4359     0.60429164E-007     0.10000000E+002                7
 RTBSE| Simulation step         Convergence     Electron number  ETRS Iterations
 RTBSE|            4360     0.59160163E-007     0.10000000E+002                7
 RTBSE| Simulation step         Convergence     Electron number  ETRS Iterations
 RTBSE|            4361     0.56027326E-007     0.10000000E+002                7
 RTBSE| Simulation step         Convergence     Electron number  ETRS Iterations
 RTBSE|            4362     0.51368984E-007     0.10000000E+002                7
 RTBSE| Simulation step         Convergence     Electron number  ETRS Iterations
 RTBSE|            4363     0.45569973E-007     0.10000000E+002                7
 RTBSE| Simulation step         Convergence     Electron number  ETRS Iterations
 RTBSE|            4364     0.39045611E-007     0.10000000E+002                7
 RTBSE| Simulation step         Convergence     Electron number  ETRS Iterations
 RTBSE|            4365     0.32218854E-007     0.10000000E+002                7
 RTBSE| Simulation step         Convergence     Electron number  ETRS Iterations
 RTBSE|            4366     0.25440525E-007     0.10000000E+002                7
 RTBSE| Simulation step         Convergence     Electron number  ETRS Iterations
 RTBSE|            4367     0.19294834E-007     0.10000000E+002                7
 RTBSE| Simulation step         Convergence     Electron number  ETRS Iterations
 RTBSE|            4368     0.15909970E-007     0.10000000E+002                7
 RTBSE| Simulation step         Convergence     Electron number  ETRS Iterations
 RTBSE|            4369     0.96922710E-007     0.10000000E+002                6
 RTBSE| Simulation step         Convergence     Electron number  ETRS Iterations
 RTBSE|            4370     0.70233440E-007     0.10000000E+002                6
 RTBSE| Simulation step         Convergence     Electron number  ETRS Iterations
 RTBSE|            4371     0.46995166E-007     0.10000000E+002                6
 RTBSE| Simulation step         Convergence     Electron number  ETRS Iterations
 RTBSE|            4372     0.31590079E-007     0.10000000E+002                6
 RTBSE| Simulation step         Convergence     Electron number  ETRS Iterations
 RTBSE|            4373     0.41107878E-007     0.10000000E+002                6
 RTBSE| Simulation step         Convergence     Electron number  ETRS Iterations
 RTBSE|            4374     0.50336718E-007     0.10000000E+002                6
 RTBSE| Simulation step         Convergence     Electron number  ETRS Iterations
 RTBSE|            4375     0.58625919E-007     0.10000000E+002                6
 RTBSE| Simulation step         Convergence     Electron number  ETRS Iterations
 RTBSE|            4376     0.66209629E-007     0.10000000E+002                6
 RTBSE| Simulation step         Convergence     Electron number  ETRS Iterations
 RTBSE|            4377     0.73556370E-007     0.10000000E+002                6
 RTBSE| Simulation step         Convergence     Electron number  ETRS Iterations
 RTBSE|            4378     0.81137421E-007     0.10000000E+002                6
 RTBSE| Simulation step         Convergence     Electron number  ETRS Iterations
 RTBSE|            4379     0.89244938E-007     0.10000000E+002                6
 RTBSE| Simulation step         Convergence     Electron number  ETRS Iterations
 RTBSE|            4380     0.98049914E-007     0.10000000E+002                6
 RTBSE| Simulation step         Convergence     Electron number  ETRS Iterations
 RTBSE|            4381     0.16927495E-007     0.10000000E+002                7
 RTBSE| Simulation step         Convergence     Electron number  ETRS Iterations
 RTBSE|            4382     0.18635337E-007     0.10000000E+002                7
 RTBSE| Simulation step         Convergence     Electron number  ETRS Iterations
 RTBSE|            4383     0.20381329E-007     0.10000000E+002                7
 RTBSE| Simulation step         Convergence     Electron number  ETRS Iterations
 RTBSE|            4384     0.22038943E-007     0.10000000E+002                7
 RTBSE| Simulation step         Convergence     Electron number  ETRS Iterations
 RTBSE|            4385     0.23473445E-007     0.10000000E+002                7
 RTBSE| Simulation step         Convergence     Electron number  ETRS Iterations
 RTBSE|            4386     0.24553322E-007     0.10000000E+002                7
 RTBSE| Simulation step         Convergence     Electron number  ETRS Iterations
 RTBSE|            4387     0.25143919E-007     0.10000000E+002                7
 RTBSE| Simulation step         Convergence     Electron number  ETRS Iterations
 RTBSE|            4388     0.25167439E-007     0.10000000E+002                7
 RTBSE| Simulation step         Convergence     Electron number  ETRS Iterations
 RTBSE|            4389     0.24526988E-007     0.10000000E+002                7
 RTBSE| Simulation step         Convergence     Electron number  ETRS Iterations
 RTBSE|            4390     0.23241213E-007     0.10000000E+002                7
 RTBSE| Simulation step         Convergence     Electron number  ETRS Iterations
 RTBSE|            4391     0.21348063E-007     0.10000000E+002                7
 RTBSE| Simulation step         Convergence     Electron number  ETRS Iterations
 RTBSE|            4392     0.18915591E-007     0.10000000E+002                7
 RTBSE| Simulation step         Convergence     Electron number  ETRS Iterations
 RTBSE|            4393     0.16150129E-007     0.10000000E+002                7
 RTBSE| Simulation step         Convergence     Electron number  ETRS Iterations
 RTBSE|            4394     0.14380117E-007     0.10000000E+002                7
 RTBSE| Simulation step         Convergence     Electron number  ETRS Iterations
 RTBSE|            4395     0.12518105E-007     0.10000000E+002                7
 RTBSE| Simulation step         Convergence     Electron number  ETRS Iterations
 RTBSE|            4396     0.89810688E-007     0.10000000E+002                6
 RTBSE| Simulation step         Convergence     Electron number  ETRS Iterations
 RTBSE|            4397     0.74741291E-007     0.10000000E+002                6
 RTBSE| Simulation step         Convergence     Electron number  ETRS Iterations
 RTBSE|            4398     0.58366860E-007     0.10000000E+002                6
 RTBSE| Simulation step         Convergence     Electron number  ETRS Iterations
 RTBSE|            4399     0.49455559E-007     0.10000000E+002                6
 RTBSE| Simulation step         Convergence     Electron number  ETRS Iterations
 RTBSE|            4400     0.69325114E-007     0.10000000E+002                6
 RTBSE| Simulation step         Convergence     Electron number  ETRS Iterations
 RTBSE|            4401     0.93923557E-007     0.10000000E+002                6
 RTBSE| Simulation step         Convergence     Electron number  ETRS Iterations
 RTBSE|            4402     0.19390198E-007     0.10000000E+002                7
 RTBSE| Simulation step         Convergence     Electron number  ETRS Iterations
 RTBSE|            4403     0.25465713E-007     0.10000000E+002                7
 RTBSE| Simulation step         Convergence     Electron number  ETRS Iterations
 RTBSE|            4404     0.32028141E-007     0.10000000E+002                7
 RTBSE| Simulation step         Convergence     Electron number  ETRS Iterations
 RTBSE|            4405     0.38794354E-007     0.10000000E+002                7
 RTBSE| Simulation step         Convergence     Electron number  ETRS Iterations
 RTBSE|            4406     0.45416189E-007     0.10000000E+002                7
 RTBSE| Simulation step         Convergence     Electron number  ETRS Iterations
 RTBSE|            4407     0.51406790E-007     0.10000000E+002                7
 RTBSE| Simulation step         Convergence     Electron number  ETRS Iterations
 RTBSE|            4408     0.56293218E-007     0.10000000E+002                7
 RTBSE| Simulation step         Convergence     Electron number  ETRS Iterations
 RTBSE|            4409     0.59638854E-007     0.10000000E+002                7
 RTBSE| Simulation step         Convergence     Electron number  ETRS Iterations
 RTBSE|            4410     0.61147989E-007     0.10000000E+002                7
 RTBSE| Simulation step         Convergence     Electron number  ETRS Iterations
 RTBSE|            4411     0.60659002E-007     0.10000000E+002                7
 RTBSE| Simulation step         Convergence     Electron number  ETRS Iterations
 RTBSE|            4412     0.58251726E-007     0.10000000E+002                7
 RTBSE| Simulation step         Convergence     Electron number  ETRS Iterations
 RTBSE|            4413     0.54133036E-007     0.10000000E+002                7
 RTBSE| Simulation step         Convergence     Electron number  ETRS Iterations
 RTBSE|            4414     0.48643669E-007     0.10000000E+002                7
 RTBSE| Simulation step         Convergence     Electron number  ETRS Iterations
 RTBSE|            4415     0.42219411E-007     0.10000000E+002                7
 RTBSE| Simulation step         Convergence     Electron number  ETRS Iterations
 RTBSE|            4416     0.35273095E-007     0.10000000E+002                7
 RTBSE| Simulation step         Convergence     Electron number  ETRS Iterations
 RTBSE|            4417     0.28241108E-007     0.10000000E+002                7
 RTBSE| Simulation step         Convergence     Electron number  ETRS Iterations
 RTBSE|            4418     0.21518099E-007     0.10000000E+002                7
 RTBSE| Simulation step         Convergence     Electron number  ETRS Iterations
 RTBSE|            4419     0.17047800E-007     0.10000000E+002                7
 RTBSE| Simulation step         Convergence     Electron number  ETRS Iterations
 RTBSE|            4420     0.13762832E-007     0.10000000E+002                7
 RTBSE| Simulation step         Convergence     Electron number  ETRS Iterations
 RTBSE|            4421     0.79968651E-007     0.10000000E+002                6
 RTBSE| Simulation step         Convergence     Electron number  ETRS Iterations
 RTBSE|            4422     0.56520337E-007     0.10000000E+002                6
 RTBSE| Simulation step         Convergence     Electron number  ETRS Iterations
 RTBSE|            4423     0.36882934E-007     0.10000000E+002                6
 RTBSE| Simulation step         Convergence     Electron number  ETRS Iterations
 RTBSE|            4424     0.32661773E-007     0.10000000E+002                6
 RTBSE| Simulation step         Convergence     Electron number  ETRS Iterations
 RTBSE|            4425     0.41634264E-007     0.10000000E+002                6
 RTBSE| Simulation step         Convergence     Electron number  ETRS Iterations
 RTBSE|            4426     0.50649733E-007     0.10000000E+002                6
 RTBSE| Simulation step         Convergence     Electron number  ETRS Iterations
 RTBSE|            4427     0.59509045E-007     0.10000000E+002                6
 RTBSE| Simulation step         Convergence     Electron number  ETRS Iterations
 RTBSE|            4428     0.68290334E-007     0.10000000E+002                6
 RTBSE| Simulation step         Convergence     Electron number  ETRS Iterations
 RTBSE|            4429     0.77188871E-007     0.10000000E+002                6
 RTBSE| Simulation step         Convergence     Electron number  ETRS Iterations
 RTBSE|            4430     0.86260359E-007     0.10000000E+002                6
 RTBSE| Simulation step         Convergence     Electron number  ETRS Iterations
 RTBSE|            4431     0.95477955E-007     0.10000000E+002                6
 RTBSE| Simulation step         Convergence     Electron number  ETRS Iterations
 RTBSE|            4432     0.16431633E-007     0.10000000E+002                7
 RTBSE| Simulation step         Convergence     Electron number  ETRS Iterations
 RTBSE|            4433     0.18025879E-007     0.10000000E+002                7
 RTBSE| Simulation step         Convergence     Electron number  ETRS Iterations
 RTBSE|            4434     0.19536029E-007     0.10000000E+002                7
 RTBSE| Simulation step         Convergence     Electron number  ETRS Iterations
 RTBSE|            4435     0.20897945E-007     0.10000000E+002                7
 RTBSE| Simulation step         Convergence     Electron number  ETRS Iterations
 RTBSE|            4436     0.22059646E-007     0.10000000E+002                7
 RTBSE| Simulation step         Convergence     Electron number  ETRS Iterations
 RTBSE|            4437     0.22928070E-007     0.10000000E+002                7
 RTBSE| Simulation step         Convergence     Electron number  ETRS Iterations
 RTBSE|            4438     0.23478267E-007     0.10000000E+002                7
 RTBSE| Simulation step         Convergence     Electron number  ETRS Iterations
 RTBSE|            4439     0.23625248E-007     0.10000000E+002                7
 RTBSE| Simulation step         Convergence     Electron number  ETRS Iterations
 RTBSE|            4440     0.23361075E-007     0.10000000E+002                7
 RTBSE| Simulation step         Convergence     Electron number  ETRS Iterations
 RTBSE|            4441     0.22662058E-007     0.10000000E+002                7
 RTBSE| Simulation step         Convergence     Electron number  ETRS Iterations
 RTBSE|            4442     0.21514000E-007     0.10000000E+002                7
 RTBSE| Simulation step         Convergence     Electron number  ETRS Iterations
 RTBSE|            4443     0.19946491E-007     0.10000000E+002                7
 RTBSE| Simulation step         Convergence     Electron number  ETRS Iterations
 RTBSE|            4444     0.17998482E-007     0.10000000E+002                7
 RTBSE| Simulation step         Convergence     Electron number  ETRS Iterations
 RTBSE|            4445     0.15767407E-007     0.10000000E+002                7
 RTBSE| Simulation step         Convergence     Electron number  ETRS Iterations
 RTBSE|            4446     0.14388613E-007     0.10000000E+002                7
 RTBSE| Simulation step         Convergence     Electron number  ETRS Iterations
 RTBSE|            4447     0.12837144E-007     0.10000000E+002                7
 RTBSE| Simulation step         Convergence     Electron number  ETRS Iterations
 RTBSE|            4448     0.93939913E-007     0.10000000E+002                6
 RTBSE| Simulation step         Convergence     Electron number  ETRS Iterations
 RTBSE|            4449     0.79106994E-007     0.10000000E+002                6
 RTBSE| Simulation step         Convergence     Electron number  ETRS Iterations
 RTBSE|            4450     0.61831939E-007     0.10000000E+002                6
 RTBSE| Simulation step         Convergence     Electron number  ETRS Iterations
 RTBSE|            4451     0.52160326E-007     0.10000000E+002                6
 RTBSE| Simulation step         Convergence     Electron number  ETRS Iterations
 RTBSE|            4452     0.74812740E-007     0.10000000E+002                6
 RTBSE| Simulation step         Convergence     Electron number  ETRS Iterations
 RTBSE|            4453     0.15583487E-007     0.10000000E+002                7
 RTBSE| Simulation step         Convergence     Electron number  ETRS Iterations
 RTBSE|            4454     0.21871009E-007     0.10000000E+002                7
 RTBSE| Simulation step         Convergence     Electron number  ETRS Iterations
 RTBSE|            4455     0.28720921E-007     0.10000000E+002                7
 RTBSE| Simulation step         Convergence     Electron number  ETRS Iterations
 RTBSE|            4456     0.35940454E-007     0.10000000E+002                7
 RTBSE| Simulation step         Convergence     Electron number  ETRS Iterations
 RTBSE|            4457     0.43096651E-007     0.10000000E+002                7
 RTBSE| Simulation step         Convergence     Electron number  ETRS Iterations
 RTBSE|            4458     0.49731082E-007     0.10000000E+002                7
 RTBSE| Simulation step         Convergence     Electron number  ETRS Iterations
 RTBSE|            4459     0.55312527E-007     0.10000000E+002                7
 RTBSE| Simulation step         Convergence     Electron number  ETRS Iterations
 RTBSE|            4460     0.59340438E-007     0.10000000E+002                7
 RTBSE| Simulation step         Convergence     Electron number  ETRS Iterations
 RTBSE|            4461     0.61427589E-007     0.10000000E+002                7
 RTBSE| Simulation step         Convergence     Electron number  ETRS Iterations
 RTBSE|            4462     0.61383301E-007     0.10000000E+002                7
 RTBSE| Simulation step         Convergence     Electron number  ETRS Iterations
 RTBSE|            4463     0.59257989E-007     0.10000000E+002                7
 RTBSE| Simulation step         Convergence     Electron number  ETRS Iterations
 RTBSE|            4464     0.55290251E-007     0.10000000E+002                7
 RTBSE| Simulation step         Convergence     Electron number  ETRS Iterations
 RTBSE|            4465     0.49879069E-007     0.10000000E+002                7
 RTBSE| Simulation step         Convergence     Electron number  ETRS Iterations
 RTBSE|            4466     0.43504266E-007     0.10000000E+002                7
 RTBSE| Simulation step         Convergence     Electron number  ETRS Iterations
 RTBSE|            4467     0.36659451E-007     0.10000000E+002                7
 RTBSE| Simulation step         Convergence     Electron number  ETRS Iterations
 RTBSE|            4468     0.29806499E-007     0.10000000E+002                7
 RTBSE| Simulation step         Convergence     Electron number  ETRS Iterations
 RTBSE|            4469     0.23342446E-007     0.10000000E+002                7
 RTBSE| Simulation step         Convergence     Electron number  ETRS Iterations
 RTBSE|            4470     0.17666695E-007     0.10000000E+002                7
 RTBSE| Simulation step         Convergence     Electron number  ETRS Iterations
 RTBSE|            4471     0.14772250E-007     0.10000000E+002                7
 RTBSE| Simulation step         Convergence     Electron number  ETRS Iterations
 RTBSE|            4472     0.91304207E-007     0.10000000E+002                6
 RTBSE| Simulation step         Convergence     Electron number  ETRS Iterations
 RTBSE|            4473     0.69302930E-007     0.10000000E+002                6
 RTBSE| Simulation step         Convergence     Electron number  ETRS Iterations
 RTBSE|            4474     0.50463866E-007     0.10000000E+002                6
 RTBSE| Simulation step         Convergence     Electron number  ETRS Iterations
 RTBSE|            4475     0.34309214E-007     0.10000000E+002                6
 RTBSE| Simulation step         Convergence     Electron number  ETRS Iterations
 RTBSE|            4476     0.29495552E-007     0.10000000E+002                6
 RTBSE| Simulation step         Convergence     Electron number  ETRS Iterations
 RTBSE|            4477     0.38656196E-007     0.10000000E+002                6
 RTBSE| Simulation step         Convergence     Electron number  ETRS Iterations
 RTBSE|            4478     0.48677361E-007     0.10000000E+002                6
 RTBSE| Simulation step         Convergence     Electron number  ETRS Iterations
 RTBSE|            4479     0.58935422E-007     0.10000000E+002                6
 RTBSE| Simulation step         Convergence     Electron number  ETRS Iterations
 RTBSE|            4480     0.69194771E-007     0.10000000E+002                6
 RTBSE| Simulation step         Convergence     Electron number  ETRS Iterations
 RTBSE|            4481     0.79321468E-007     0.10000000E+002                6
 RTBSE| Simulation step         Convergence     Electron number  ETRS Iterations
 RTBSE|            4482     0.89078687E-007     0.10000000E+002                6
 RTBSE| Simulation step         Convergence     Electron number  ETRS Iterations
 RTBSE|            4483     0.98387393E-007     0.10000000E+002                6
 RTBSE| Simulation step         Convergence     Electron number  ETRS Iterations
 RTBSE|            4484     0.16872621E-007     0.10000000E+002                7
 RTBSE| Simulation step         Convergence     Electron number  ETRS Iterations
 RTBSE|            4485     0.18338688E-007     0.10000000E+002                7
 RTBSE| Simulation step         Convergence     Electron number  ETRS Iterations
 RTBSE|            4486     0.19675708E-007     0.10000000E+002                7
 RTBSE| Simulation step         Convergence     Electron number  ETRS Iterations
 RTBSE|            4487     0.20835293E-007     0.10000000E+002                7
 RTBSE| Simulation step         Convergence     Electron number  ETRS Iterations
 RTBSE|            4488     0.21788294E-007     0.10000000E+002                7
 RTBSE| Simulation step         Convergence     Electron number  ETRS Iterations
 RTBSE|            4489     0.22483898E-007     0.10000000E+002                7
 RTBSE| Simulation step         Convergence     Electron number  ETRS Iterations
 RTBSE|            4490     0.22904127E-007     0.10000000E+002                7
 RTBSE| Simulation step         Convergence     Electron number  ETRS Iterations
 RTBSE|            4491     0.22993556E-007     0.10000000E+002                7
 RTBSE| Simulation step         Convergence     Electron number  ETRS Iterations
 RTBSE|            4492     0.22741437E-007     0.10000000E+002                7
 RTBSE| Simulation step         Convergence     Electron number  ETRS Iterations
 RTBSE|            4493     0.22092867E-007     0.10000000E+002                7
 RTBSE| Simulation step         Convergence     Electron number  ETRS Iterations
 RTBSE|            4494     0.21049547E-007     0.10000000E+002                7
 RTBSE| Simulation step         Convergence     Electron number  ETRS Iterations
 RTBSE|            4495     0.19617880E-007     0.10000000E+002                7
 RTBSE| Simulation step         Convergence     Electron number  ETRS Iterations
 RTBSE|            4496     0.17807875E-007     0.10000000E+002                7
 RTBSE| Simulation step         Convergence     Electron number  ETRS Iterations
 RTBSE|            4497     0.15839544E-007     0.10000000E+002                7
 RTBSE| Simulation step         Convergence     Electron number  ETRS Iterations
 RTBSE|            4498     0.14620856E-007     0.10000000E+002                7
 RTBSE| Simulation step         Convergence     Electron number  ETRS Iterations
 RTBSE|            4499     0.13198682E-007     0.10000000E+002                7
 RTBSE| Simulation step         Convergence     Electron number  ETRS Iterations
 RTBSE|            4500     0.97704910E-007     0.10000000E+002                6
 RTBSE| Simulation step         Convergence     Electron number  ETRS Iterations
 RTBSE|            4501     0.83027935E-007     0.10000000E+002                6
 RTBSE| Simulation step         Convergence     Electron number  ETRS Iterations
 RTBSE|            4502     0.64820664E-007     0.10000000E+002                6
 RTBSE| Simulation step         Convergence     Electron number  ETRS Iterations
 RTBSE|            4503     0.57278420E-007     0.10000000E+002                6
 RTBSE| Simulation step         Convergence     Electron number  ETRS Iterations
 RTBSE|            4504     0.84409044E-007     0.10000000E+002                6
 RTBSE| Simulation step         Convergence     Electron number  ETRS Iterations
 RTBSE|            4505     0.18499111E-007     0.10000000E+002                7
 RTBSE| Simulation step         Convergence     Electron number  ETRS Iterations
 RTBSE|            4506     0.25965302E-007     0.10000000E+002                7
 RTBSE| Simulation step         Convergence     Electron number  ETRS Iterations
 RTBSE|            4507     0.33823414E-007     0.10000000E+002                7
 RTBSE| Simulation step         Convergence     Electron number  ETRS Iterations
 RTBSE|            4508     0.41600103E-007     0.10000000E+002                7
 RTBSE| Simulation step         Convergence     Electron number  ETRS Iterations
 RTBSE|            4509     0.48724717E-007     0.10000000E+002                7
 RTBSE| Simulation step         Convergence     Electron number  ETRS Iterations
 RTBSE|            4510     0.54575556E-007     0.10000000E+002                7
 RTBSE| Simulation step         Convergence     Electron number  ETRS Iterations
 RTBSE|            4511     0.58682045E-007     0.10000000E+002                7
 RTBSE| Simulation step         Convergence     Electron number  ETRS Iterations
 RTBSE|            4512     0.60721484E-007     0.10000000E+002                7
 RTBSE| Simulation step         Convergence     Electron number  ETRS Iterations
 RTBSE|            4513     0.60593182E-007     0.10000000E+002                7
 RTBSE| Simulation step         Convergence     Electron number  ETRS Iterations
 RTBSE|            4514     0.58452752E-007     0.10000000E+002                7
 RTBSE| Simulation step         Convergence     Electron number  ETRS Iterations
 RTBSE|            4515     0.54571853E-007     0.10000000E+002                7
 RTBSE| Simulation step         Convergence     Electron number  ETRS Iterations
 RTBSE|            4516     0.49410254E-007     0.10000000E+002                7
 RTBSE| Simulation step         Convergence     Electron number  ETRS Iterations
 RTBSE|            4517     0.43479999E-007     0.10000000E+002                7
 RTBSE| Simulation step         Convergence     Electron number  ETRS Iterations
 RTBSE|            4518     0.37219985E-007     0.10000000E+002                7
 RTBSE| Simulation step         Convergence     Electron number  ETRS Iterations
 RTBSE|            4519     0.31009460E-007     0.10000000E+002                7
 RTBSE| Simulation step         Convergence     Electron number  ETRS Iterations
 RTBSE|            4520     0.25160663E-007     0.10000000E+002                7
 RTBSE| Simulation step         Convergence     Electron number  ETRS Iterations
 RTBSE|            4521     0.19870922E-007     0.10000000E+002                7
 RTBSE| Simulation step         Convergence     Electron number  ETRS Iterations
 RTBSE|            4522     0.15723455E-007     0.10000000E+002                7
 RTBSE| Simulation step         Convergence     Electron number  ETRS Iterations
 RTBSE|            4523     0.13416681E-007     0.10000000E+002                7
 RTBSE| Simulation step         Convergence     Electron number  ETRS Iterations
 RTBSE|            4524     0.83811288E-007     0.10000000E+002                6
 RTBSE| Simulation step         Convergence     Electron number  ETRS Iterations
 RTBSE|            4525     0.66289363E-007     0.10000000E+002                6
 RTBSE| Simulation step         Convergence     Electron number  ETRS Iterations
 RTBSE|            4526     0.51855283E-007     0.10000000E+002                6
 RTBSE| Simulation step         Convergence     Electron number  ETRS Iterations
 RTBSE|            4527     0.38413240E-007     0.10000000E+002                6
 RTBSE| Simulation step         Convergence     Electron number  ETRS Iterations
 RTBSE|            4528     0.25351626E-007     0.10000000E+002                6
 RTBSE| Simulation step         Convergence     Electron number  ETRS Iterations
 RTBSE|            4529     0.33214315E-007     0.10000000E+002                6
 RTBSE| Simulation step         Convergence     Electron number  ETRS Iterations
 RTBSE|            4530     0.44605649E-007     0.10000000E+002                6
 RTBSE| Simulation step         Convergence     Electron number  ETRS Iterations
 RTBSE|            4531     0.56959727E-007     0.10000000E+002                6
 RTBSE| Simulation step         Convergence     Electron number  ETRS Iterations
 RTBSE|            4532     0.69696228E-007     0.10000000E+002                6
 RTBSE| Simulation step         Convergence     Electron number  ETRS Iterations
 RTBSE|            4533     0.82216727E-007     0.10000000E+002                6
 RTBSE| Simulation step         Convergence     Electron number  ETRS Iterations
 RTBSE|            4534     0.94110646E-007     0.10000000E+002                6
 RTBSE| Simulation step         Convergence     Electron number  ETRS Iterations
 RTBSE|            4535     0.16345402E-007     0.10000000E+002                7
 RTBSE| Simulation step         Convergence     Electron number  ETRS Iterations
 RTBSE|            4536     0.18103022E-007     0.10000000E+002                7
 RTBSE| Simulation step         Convergence     Electron number  ETRS Iterations
 RTBSE|            4537     0.19621638E-007     0.10000000E+002                7
 RTBSE| Simulation step         Convergence     Electron number  ETRS Iterations
 RTBSE|            4538     0.20848806E-007     0.10000000E+002                7
 RTBSE| Simulation step         Convergence     Electron number  ETRS Iterations
 RTBSE|            4539     0.21765416E-007     0.10000000E+002                7
 RTBSE| Simulation step         Convergence     Electron number  ETRS Iterations
 RTBSE|            4540     0.22379821E-007     0.10000000E+002                7
 RTBSE| Simulation step         Convergence     Electron number  ETRS Iterations
 RTBSE|            4541     0.22669235E-007     0.10000000E+002                7
 RTBSE| Simulation step         Convergence     Electron number  ETRS Iterations
 RTBSE|            4542     0.22663100E-007     0.10000000E+002                7
 RTBSE| Simulation step         Convergence     Electron number  ETRS Iterations
 RTBSE|            4543     0.22382955E-007     0.10000000E+002                7
 RTBSE| Simulation step         Convergence     Electron number  ETRS Iterations
 RTBSE|            4544     0.21838070E-007     0.10000000E+002                7
 RTBSE| Simulation step         Convergence     Electron number  ETRS Iterations
 RTBSE|            4545     0.21061314E-007     0.10000000E+002                7
 RTBSE| Simulation step         Convergence     Electron number  ETRS Iterations
 RTBSE|            4546     0.20061926E-007     0.10000000E+002                7
 RTBSE| Simulation step         Convergence     Electron number  ETRS Iterations
 RTBSE|            4547     0.18815453E-007     0.10000000E+002                7
 RTBSE| Simulation step         Convergence     Electron number  ETRS Iterations
 RTBSE|            4548     0.17316355E-007     0.10000000E+002                7
 RTBSE| Simulation step         Convergence     Electron number  ETRS Iterations
 RTBSE|            4549     0.15817510E-007     0.10000000E+002                7
 RTBSE| Simulation step         Convergence     Electron number  ETRS Iterations
 RTBSE|            4550     0.14871784E-007     0.10000000E+002                7
 RTBSE| Simulation step         Convergence     Electron number  ETRS Iterations
 RTBSE|            4551     0.13650509E-007     0.10000000E+002                7
 RTBSE| Simulation step         Convergence     Electron number  ETRS Iterations
 RTBSE|            4552     0.12308158E-007     0.10000000E+002                7
 RTBSE| Simulation step         Convergence     Electron number  ETRS Iterations
 RTBSE|            4553     0.83794563E-007     0.10000000E+002                6
 RTBSE| Simulation step         Convergence     Electron number  ETRS Iterations
 RTBSE|            4554     0.60772941E-007     0.10000000E+002                6
 RTBSE| Simulation step         Convergence     Electron number  ETRS Iterations
 RTBSE|            4555     0.70574652E-007     0.10000000E+002                6
 RTBSE| Simulation step         Convergence     Electron number  ETRS Iterations
 RTBSE|            4556     0.15962921E-007     0.10000000E+002                7
 RTBSE| Simulation step         Convergence     Electron number  ETRS Iterations
 RTBSE|            4557     0.23856776E-007     0.10000000E+002                7
 RTBSE| Simulation step         Convergence     Electron number  ETRS Iterations
 RTBSE|            4558     0.32029085E-007     0.10000000E+002                7
 RTBSE| Simulation step         Convergence     Electron number  ETRS Iterations
 RTBSE|            4559     0.39950822E-007     0.10000000E+002                7
 RTBSE| Simulation step         Convergence     Electron number  ETRS Iterations
 RTBSE|            4560     0.47024526E-007     0.10000000E+002                7
 RTBSE| Simulation step         Convergence     Electron number  ETRS Iterations
 RTBSE|            4561     0.52713708E-007     0.10000000E+002                7
 RTBSE| Simulation step         Convergence     Electron number  ETRS Iterations
 RTBSE|            4562     0.56606436E-007     0.10000000E+002                7
 RTBSE| Simulation step         Convergence     Electron number  ETRS Iterations
 RTBSE|            4563     0.58461442E-007     0.10000000E+002                7
 RTBSE| Simulation step         Convergence     Electron number  ETRS Iterations
 RTBSE|            4564     0.58263042E-007     0.10000000E+002                7
 RTBSE| Simulation step         Convergence     Electron number  ETRS Iterations
 RTBSE|            4565     0.56191080E-007     0.10000000E+002                7
 RTBSE| Simulation step         Convergence     Electron number  ETRS Iterations
 RTBSE|            4566     0.52578449E-007     0.10000000E+002                7
 RTBSE| Simulation step         Convergence     Electron number  ETRS Iterations
 RTBSE|            4567     0.47840773E-007     0.10000000E+002                7
 RTBSE| Simulation step         Convergence     Electron number  ETRS Iterations
 RTBSE|            4568     0.42430197E-007     0.10000000E+002                7
 RTBSE| Simulation step         Convergence     Electron number  ETRS Iterations
 RTBSE|            4569     0.36738958E-007     0.10000000E+002                7
 RTBSE| Simulation step         Convergence     Electron number  ETRS Iterations
 RTBSE|            4570     0.31179891E-007     0.10000000E+002                7
 RTBSE| Simulation step         Convergence     Electron number  ETRS Iterations
 RTBSE|            4571     0.26005838E-007     0.10000000E+002                7
 RTBSE| Simulation step         Convergence     Electron number  ETRS Iterations
 RTBSE|            4572     0.21461095E-007     0.10000000E+002                7
 RTBSE| Simulation step         Convergence     Electron number  ETRS Iterations
 RTBSE|            4573     0.17601749E-007     0.10000000E+002                7
 RTBSE| Simulation step         Convergence     Electron number  ETRS Iterations
 RTBSE|            4574     0.14391058E-007     0.10000000E+002                7
 RTBSE| Simulation step         Convergence     Electron number  ETRS Iterations
 RTBSE|            4575     0.98469562E-007     0.10000000E+002                6
 RTBSE| Simulation step         Convergence     Electron number  ETRS Iterations
 RTBSE|            4576     0.85122131E-007     0.10000000E+002                6
 RTBSE| Simulation step         Convergence     Electron number  ETRS Iterations
 RTBSE|            4577     0.75413761E-007     0.10000000E+002                6
 RTBSE| Simulation step         Convergence     Electron number  ETRS Iterations
 RTBSE|            4578     0.65310642E-007     0.10000000E+002                6
 RTBSE| Simulation step         Convergence     Electron number  ETRS Iterations
 RTBSE|            4579     0.53702923E-007     0.10000000E+002                6
 RTBSE| Simulation step         Convergence     Electron number  ETRS Iterations
 RTBSE|            4580     0.40094513E-007     0.10000000E+002                6
 RTBSE| Simulation step         Convergence     Electron number  ETRS Iterations
 RTBSE|            4581     0.29354765E-007     0.10000000E+002                6
 RTBSE| Simulation step         Convergence     Electron number  ETRS Iterations
 RTBSE|            4582     0.44240912E-007     0.10000000E+002                6
 RTBSE| Simulation step         Convergence     Electron number  ETRS Iterations
 RTBSE|            4583     0.61484215E-007     0.10000000E+002                6
 RTBSE| Simulation step         Convergence     Electron number  ETRS Iterations
 RTBSE|            4584     0.78842951E-007     0.10000000E+002                6
 RTBSE| Simulation step         Convergence     Electron number  ETRS Iterations
 RTBSE|            4585     0.94914775E-007     0.10000000E+002                6
 RTBSE| Simulation step         Convergence     Electron number  ETRS Iterations
 RTBSE|            4586     0.16756471E-007     0.10000000E+002                7
 RTBSE| Simulation step         Convergence     Electron number  ETRS Iterations
 RTBSE|            4587     0.18844321E-007     0.10000000E+002                7
 RTBSE| Simulation step         Convergence     Electron number  ETRS Iterations
 RTBSE|            4588     0.20450793E-007     0.10000000E+002                7
 RTBSE| Simulation step         Convergence     Electron number  ETRS Iterations
 RTBSE|            4589     0.21533650E-007     0.10000000E+002                7
 RTBSE| Simulation step         Convergence     Electron number  ETRS Iterations
 RTBSE|            4590     0.22151189E-007     0.10000000E+002                7
 RTBSE| Simulation step         Convergence     Electron number  ETRS Iterations
 RTBSE|            4591     0.22334773E-007     0.10000000E+002                7
 RTBSE| Simulation step         Convergence     Electron number  ETRS Iterations
 RTBSE|            4592     0.22199319E-007     0.10000000E+002                7
 RTBSE| Simulation step         Convergence     Electron number  ETRS Iterations
 RTBSE|            4593     0.21829447E-007     0.10000000E+002                7
 RTBSE| Simulation step         Convergence     Electron number  ETRS Iterations
 RTBSE|            4594     0.21327280E-007     0.10000000E+002                7
 RTBSE| Simulation step         Convergence     Electron number  ETRS Iterations
 RTBSE|            4595     0.20768227E-007     0.10000000E+002                7
 RTBSE| Simulation step         Convergence     Electron number  ETRS Iterations
 RTBSE|            4596     0.20165970E-007     0.10000000E+002                7
 RTBSE| Simulation step         Convergence     Electron number  ETRS Iterations
 RTBSE|            4597     0.19510124E-007     0.10000000E+002                7
 RTBSE| Simulation step         Convergence     Electron number  ETRS Iterations
 RTBSE|            4598     0.18772724E-007     0.10000000E+002                7
 RTBSE| Simulation step         Convergence     Electron number  ETRS Iterations
 RTBSE|            4599     0.17867582E-007     0.10000000E+002                7
 RTBSE| Simulation step         Convergence     Electron number  ETRS Iterations
 RTBSE|            4600     0.16683960E-007     0.10000000E+002                7
 RTBSE| Simulation step         Convergence     Electron number  ETRS Iterations
 RTBSE|            4601     0.15589638E-007     0.10000000E+002                7
 RTBSE| Simulation step         Convergence     Electron number  ETRS Iterations
 RTBSE|            4602     0.14729615E-007     0.10000000E+002                7
 RTBSE| Simulation step         Convergence     Electron number  ETRS Iterations
 RTBSE|            4603     0.13437266E-007     0.10000000E+002                7
 RTBSE| Simulation step         Convergence     Electron number  ETRS Iterations
 RTBSE|            4604     0.96160796E-007     0.10000000E+002                6
 RTBSE| Simulation step         Convergence     Electron number  ETRS Iterations
 RTBSE|            4605     0.75088693E-007     0.10000000E+002                6
 RTBSE| Simulation step         Convergence     Electron number  ETRS Iterations
 RTBSE|            4606     0.55050377E-007     0.10000000E+002                6
 RTBSE| Simulation step         Convergence     Electron number  ETRS Iterations
 RTBSE|            4607     0.85771514E-007     0.10000000E+002                6
 RTBSE| Simulation step         Convergence     Electron number  ETRS Iterations
 RTBSE|            4608     0.20148432E-007     0.10000000E+002                7
 RTBSE| Simulation step         Convergence     Electron number  ETRS Iterations
 RTBSE|            4609     0.28314850E-007     0.10000000E+002                7
 RTBSE| Simulation step         Convergence     Electron number  ETRS Iterations
 RTBSE|            4610     0.36301548E-007     0.10000000E+002                7
 RTBSE| Simulation step         Convergence     Electron number  ETRS Iterations
 RTBSE|            4611     0.43516475E-007     0.10000000E+002                7
 RTBSE| Simulation step         Convergence     Electron number  ETRS Iterations
 RTBSE|            4612     0.49432697E-007     0.10000000E+002                7
 RTBSE| Simulation step         Convergence     Electron number  ETRS Iterations
 RTBSE|            4613     0.53595298E-007     0.10000000E+002                7
 RTBSE| Simulation step         Convergence     Electron number  ETRS Iterations
 RTBSE|            4614     0.55746355E-007     0.10000000E+002                7
 RTBSE| Simulation step         Convergence     Electron number  ETRS Iterations
 RTBSE|            4615     0.55824636E-007     0.10000000E+002                7
 RTBSE| Simulation step         Convergence     Electron number  ETRS Iterations
 RTBSE|            4616     0.54033008E-007     0.10000000E+002                7
 RTBSE| Simulation step         Convergence     Electron number  ETRS Iterations
 RTBSE|            4617     0.50685540E-007     0.10000000E+002                7
 RTBSE| Simulation step         Convergence     Electron number  ETRS Iterations
 RTBSE|            4618     0.46219358E-007     0.10000000E+002                7
 RTBSE| Simulation step         Convergence     Electron number  ETRS Iterations
 RTBSE|            4619     0.41126248E-007     0.10000000E+002                7
 RTBSE| Simulation step         Convergence     Electron number  ETRS Iterations
 RTBSE|            4620     0.35914877E-007     0.10000000E+002                7
 RTBSE| Simulation step         Convergence     Electron number  ETRS Iterations
 RTBSE|            4621     0.31023938E-007     0.10000000E+002                7
 RTBSE| Simulation step         Convergence     Electron number  ETRS Iterations
 RTBSE|            4622     0.26754274E-007     0.10000000E+002                7
 RTBSE| Simulation step         Convergence     Electron number  ETRS Iterations
 RTBSE|            4623     0.23246988E-007     0.10000000E+002                7
 RTBSE| Simulation step         Convergence     Electron number  ETRS Iterations
 RTBSE|            4624     0.20503943E-007     0.10000000E+002                7
 RTBSE| Simulation step         Convergence     Electron number  ETRS Iterations
 RTBSE|            4625     0.18356127E-007     0.10000000E+002                7
 RTBSE| Simulation step         Convergence     Electron number  ETRS Iterations
 RTBSE|            4626     0.16688858E-007     0.10000000E+002                7
 RTBSE| Simulation step         Convergence     Electron number  ETRS Iterations
 RTBSE|            4627     0.15516397E-007     0.10000000E+002                7
 RTBSE| Simulation step         Convergence     Electron number  ETRS Iterations
 RTBSE|            4628     0.14221562E-007     0.10000000E+002                7
 RTBSE| Simulation step         Convergence     Electron number  ETRS Iterations
 RTBSE|            4629     0.96636458E-007     0.10000000E+002                6
 RTBSE| Simulation step         Convergence     Electron number  ETRS Iterations
 RTBSE|            4630     0.84597655E-007     0.10000000E+002                6
 RTBSE| Simulation step         Convergence     Electron number  ETRS Iterations
 RTBSE|            4631     0.68276257E-007     0.10000000E+002                6
 RTBSE| Simulation step         Convergence     Electron number  ETRS Iterations
 RTBSE|            4632     0.48093467E-007     0.10000000E+002                6
 RTBSE| Simulation step         Convergence     Electron number  ETRS Iterations
 RTBSE|            4633     0.36883730E-007     0.10000000E+002                6
 RTBSE| Simulation step         Convergence     Electron number  ETRS Iterations
 RTBSE|            4634     0.57492616E-007     0.10000000E+002                6
 RTBSE| Simulation step         Convergence     Electron number  ETRS Iterations
 RTBSE|            4635     0.79148961E-007     0.10000000E+002                6
 RTBSE| Simulation step         Convergence     Electron number  ETRS Iterations
 RTBSE|            4636     0.98809565E-007     0.10000000E+002                6
 RTBSE| Simulation step         Convergence     Electron number  ETRS Iterations
 RTBSE|            4637     0.17604597E-007     0.10000000E+002                7
 RTBSE| Simulation step         Convergence     Electron number  ETRS Iterations
 RTBSE|            4638     0.19911323E-007     0.10000000E+002                7
 RTBSE| Simulation step         Convergence     Electron number  ETRS Iterations
 RTBSE|            4639     0.21480932E-007     0.10000000E+002                7
 RTBSE| Simulation step         Convergence     Electron number  ETRS Iterations
 RTBSE|            4640     0.22323597E-007     0.10000000E+002                7
 RTBSE| Simulation step         Convergence     Electron number  ETRS Iterations
 RTBSE|            4641     0.22520558E-007     0.10000000E+002                7
 RTBSE| Simulation step         Convergence     Electron number  ETRS Iterations
 RTBSE|            4642     0.22174678E-007     0.10000000E+002                7
 RTBSE| Simulation step         Convergence     Electron number  ETRS Iterations
 RTBSE|            4643     0.21456650E-007     0.10000000E+002                7
 RTBSE| Simulation step         Convergence     Electron number  ETRS Iterations
 RTBSE|            4644     0.20569273E-007     0.10000000E+002                7
 RTBSE| Simulation step         Convergence     Electron number  ETRS Iterations
 RTBSE|            4645     0.19637201E-007     0.10000000E+002                7
 RTBSE| Simulation step         Convergence     Electron number  ETRS Iterations
 RTBSE|            4646     0.18820185E-007     0.10000000E+002                7
 RTBSE| Simulation step         Convergence     Electron number  ETRS Iterations
 RTBSE|            4647     0.18148562E-007     0.10000000E+002                7
 RTBSE| Simulation step         Convergence     Electron number  ETRS Iterations
 RTBSE|            4648     0.17660577E-007     0.10000000E+002                7
 RTBSE| Simulation step         Convergence     Electron number  ETRS Iterations
 RTBSE|            4649     0.17292479E-007     0.10000000E+002                7
 RTBSE| Simulation step         Convergence     Electron number  ETRS Iterations
 RTBSE|            4650     0.16942596E-007     0.10000000E+002                7
 RTBSE| Simulation step         Convergence     Electron number  ETRS Iterations
 RTBSE|            4651     0.16471895E-007     0.10000000E+002                7
 RTBSE| Simulation step         Convergence     Electron number  ETRS Iterations
 RTBSE|            4652     0.15695833E-007     0.10000000E+002                7
 RTBSE| Simulation step         Convergence     Electron number  ETRS Iterations
 RTBSE|            4653     0.14964316E-007     0.10000000E+002                7
 RTBSE| Simulation step         Convergence     Electron number  ETRS Iterations
 RTBSE|            4654     0.14359292E-007     0.10000000E+002                7
 RTBSE| Simulation step         Convergence     Electron number  ETRS Iterations
 RTBSE|            4655     0.13217869E-007     0.10000000E+002                7
 RTBSE| Simulation step         Convergence     Electron number  ETRS Iterations
 RTBSE|            4656     0.93287790E-007     0.10000000E+002                6
 RTBSE| Simulation step         Convergence     Electron number  ETRS Iterations
 RTBSE|            4657     0.70292369E-007     0.10000000E+002                6
 RTBSE| Simulation step         Convergence     Electron number  ETRS Iterations
 RTBSE|            4658     0.62166922E-007     0.10000000E+002                6
 RTBSE| Simulation step         Convergence     Electron number  ETRS Iterations
 RTBSE|            4659     0.97373115E-007     0.10000000E+002                6
 RTBSE| Simulation step         Convergence     Electron number  ETRS Iterations
 RTBSE|            4660     0.23254530E-007     0.10000000E+002                7
 RTBSE| Simulation step         Convergence     Electron number  ETRS Iterations
 RTBSE|            4661     0.31723511E-007     0.10000000E+002                7
 RTBSE| Simulation step         Convergence     Electron number  ETRS Iterations
 RTBSE|            4662     0.39581126E-007     0.10000000E+002                7
 RTBSE| Simulation step         Convergence     Electron number  ETRS Iterations
 RTBSE|            4663     0.46110732E-007     0.10000000E+002                7
 RTBSE| Simulation step         Convergence     Electron number  ETRS Iterations
 RTBSE|            4664     0.50799246E-007     0.10000000E+002                7
 RTBSE| Simulation step         Convergence     Electron number  ETRS Iterations
 RTBSE|            4665     0.53324540E-007     0.10000000E+002                7
 RTBSE| Simulation step         Convergence     Electron number  ETRS Iterations
 RTBSE|            4666     0.53651723E-007     0.10000000E+002                7
 RTBSE| Simulation step         Convergence     Electron number  ETRS Iterations
 RTBSE|            4667     0.52004358E-007     0.10000000E+002                7
 RTBSE| Simulation step         Convergence     Electron number  ETRS Iterations
 RTBSE|            4668     0.48824919E-007     0.10000000E+002                7
 RTBSE| Simulation step         Convergence     Electron number  ETRS Iterations
 RTBSE|            4669     0.44629854E-007     0.10000000E+002                7
 RTBSE| Simulation step         Convergence     Electron number  ETRS Iterations
 RTBSE|            4670     0.40000412E-007     0.10000000E+002                7
 RTBSE| Simulation step         Convergence     Electron number  ETRS Iterations
 RTBSE|            4671     0.35454784E-007     0.10000000E+002                7
 RTBSE| Simulation step         Convergence     Electron number  ETRS Iterations
 RTBSE|            4672     0.31387456E-007     0.10000000E+002                7
 RTBSE| Simulation step         Convergence     Electron number  ETRS Iterations
 RTBSE|            4673     0.28068474E-007     0.10000000E+002                7
 RTBSE| Simulation step         Convergence     Electron number  ETRS Iterations
 RTBSE|            4674     0.25542543E-007     0.10000000E+002                7
 RTBSE| Simulation step         Convergence     Electron number  ETRS Iterations
 RTBSE|            4675     0.23691354E-007     0.10000000E+002                7
 RTBSE| Simulation step         Convergence     Electron number  ETRS Iterations
 RTBSE|            4676     0.22267890E-007     0.10000000E+002                7
 RTBSE| Simulation step         Convergence     Electron number  ETRS Iterations
 RTBSE|            4677     0.20910211E-007     0.10000000E+002                7
 RTBSE| Simulation step         Convergence     Electron number  ETRS Iterations
 RTBSE|            4678     0.19750934E-007     0.10000000E+002                7
 RTBSE| Simulation step         Convergence     Electron number  ETRS Iterations
 RTBSE|            4679     0.18230839E-007     0.10000000E+002                7
 RTBSE| Simulation step         Convergence     Electron number  ETRS Iterations
 RTBSE|            4680     0.16190879E-007     0.10000000E+002                7
 RTBSE| Simulation step         Convergence     Electron number  ETRS Iterations
 RTBSE|            4681     0.14446796E-007     0.10000000E+002                7
 RTBSE| Simulation step         Convergence     Electron number  ETRS Iterations
 RTBSE|            4682     0.87715024E-007     0.10000000E+002                6
 RTBSE| Simulation step         Convergence     Electron number  ETRS Iterations
 RTBSE|            4683     0.64522990E-007     0.10000000E+002                6
 RTBSE| Simulation step         Convergence     Electron number  ETRS Iterations
 RTBSE|            4684     0.37816149E-007     0.10000000E+002                6
 RTBSE| Simulation step         Convergence     Electron number  ETRS Iterations
 RTBSE|            4685     0.53629697E-007     0.10000000E+002                6
 RTBSE| Simulation step         Convergence     Electron number  ETRS Iterations
 RTBSE|            4686     0.77795129E-007     0.10000000E+002                6
 RTBSE| Simulation step         Convergence     Electron number  ETRS Iterations
 RTBSE|            4687     0.99780009E-007     0.10000000E+002                6
 RTBSE| Simulation step         Convergence     Electron number  ETRS Iterations
 RTBSE|            4688     0.17939117E-007     0.10000000E+002                7
 RTBSE| Simulation step         Convergence     Electron number  ETRS Iterations
 RTBSE|            4689     0.20393039E-007     0.10000000E+002                7
 RTBSE| Simulation step         Convergence     Electron number  ETRS Iterations
 RTBSE|            4690     0.21916276E-007     0.10000000E+002                7
 RTBSE| Simulation step         Convergence     Electron number  ETRS Iterations
 RTBSE|            4691     0.22526290E-007     0.10000000E+002                7
 RTBSE| Simulation step         Convergence     Electron number  ETRS Iterations
 RTBSE|            4692     0.22294107E-007     0.10000000E+002                7
 RTBSE| Simulation step         Convergence     Electron number  ETRS Iterations
 RTBSE|            4693     0.21390465E-007     0.10000000E+002                7
 RTBSE| Simulation step         Convergence     Electron number  ETRS Iterations
 RTBSE|            4694     0.20062497E-007     0.10000000E+002                7
 RTBSE| Simulation step         Convergence     Electron number  ETRS Iterations
 RTBSE|            4695     0.18540161E-007     0.10000000E+002                7
 RTBSE| Simulation step         Convergence     Electron number  ETRS Iterations
 RTBSE|            4696     0.17113963E-007     0.10000000E+002                7
 RTBSE| Simulation step         Convergence     Electron number  ETRS Iterations
 RTBSE|            4697     0.98494779E-007     0.10000000E+002                6
 RTBSE| Simulation step         Convergence     Electron number  ETRS Iterations
 RTBSE|            4698     0.95030546E-007     0.10000000E+002                6
 RTBSE| Simulation step         Convergence     Electron number  ETRS Iterations
 RTBSE|            4699     0.94224256E-007     0.10000000E+002                6
 RTBSE| Simulation step         Convergence     Electron number  ETRS Iterations
 RTBSE|            4700     0.96151810E-007     0.10000000E+002                6
 RTBSE| Simulation step         Convergence     Electron number  ETRS Iterations
 RTBSE|            4701     0.15536630E-007     0.10000000E+002                7
 RTBSE| Simulation step         Convergence     Electron number  ETRS Iterations
 RTBSE|            4702     0.16096683E-007     0.10000000E+002                7
 RTBSE| Simulation step         Convergence     Electron number  ETRS Iterations
 RTBSE|            4703     0.16509676E-007     0.10000000E+002                7
 RTBSE| Simulation step         Convergence     Electron number  ETRS Iterations
 RTBSE|            4704     0.16490639E-007     0.10000000E+002                7
 RTBSE| Simulation step         Convergence     Electron number  ETRS Iterations
 RTBSE|            4705     0.15781468E-007     0.10000000E+002                7
 RTBSE| Simulation step         Convergence     Electron number  ETRS Iterations
 RTBSE|            4706     0.15406326E-007     0.10000000E+002                7
 RTBSE| Simulation step         Convergence     Electron number  ETRS Iterations
 RTBSE|            4707     0.14243120E-007     0.10000000E+002                7
 RTBSE| Simulation step         Convergence     Electron number  ETRS Iterations
 RTBSE|            4708     0.97863811E-007     0.10000000E+002                6
 RTBSE| Simulation step         Convergence     Electron number  ETRS Iterations
 RTBSE|            4709     0.69771504E-007     0.10000000E+002                6
 RTBSE| Simulation step         Convergence     Electron number  ETRS Iterations
 RTBSE|            4710     0.71302341E-007     0.10000000E+002                6
 RTBSE| Simulation step         Convergence     Electron number  ETRS Iterations
 RTBSE|            4711     0.17747966E-007     0.10000000E+002                7
 RTBSE| Simulation step         Convergence     Electron number  ETRS Iterations
 RTBSE|            4712     0.26771424E-007     0.10000000E+002                7
 RTBSE| Simulation step         Convergence     Electron number  ETRS Iterations
 RTBSE|            4713     0.35198770E-007     0.10000000E+002                7
 RTBSE| Simulation step         Convergence     Electron number  ETRS Iterations
 RTBSE|            4714     0.42306119E-007     0.10000000E+002                7
 RTBSE| Simulation step         Convergence     Electron number  ETRS Iterations
 RTBSE|            4715     0.47505507E-007     0.10000000E+002                7
 RTBSE| Simulation step         Convergence     Electron number  ETRS Iterations
 RTBSE|            4716     0.50482757E-007     0.10000000E+002                7
 RTBSE| Simulation step         Convergence     Electron number  ETRS Iterations
 RTBSE|            4717     0.51229387E-007     0.10000000E+002                7
 RTBSE| Simulation step         Convergence     Electron number  ETRS Iterations
 RTBSE|            4718     0.50022608E-007     0.10000000E+002                7
 RTBSE| Simulation step         Convergence     Electron number  ETRS Iterations
 RTBSE|            4719     0.47336913E-007     0.10000000E+002                7
 RTBSE| Simulation step         Convergence     Electron number  ETRS Iterations
 RTBSE|            4720     0.43738683E-007     0.10000000E+002                7
 RTBSE| Simulation step         Convergence     Electron number  ETRS Iterations
 RTBSE|            4721     0.39739491E-007     0.10000000E+002                7
 RTBSE| Simulation step         Convergence     Electron number  ETRS Iterations
 RTBSE|            4722     0.35834390E-007     0.10000000E+002                7
 RTBSE| Simulation step         Convergence     Electron number  ETRS Iterations
 RTBSE|            4723     0.32364299E-007     0.10000000E+002                7
 RTBSE| Simulation step         Convergence     Electron number  ETRS Iterations
 RTBSE|            4724     0.29553066E-007     0.10000000E+002                7
 RTBSE| Simulation step         Convergence     Electron number  ETRS Iterations
 RTBSE|            4725     0.27457721E-007     0.10000000E+002                7
 RTBSE| Simulation step         Convergence     Electron number  ETRS Iterations
 RTBSE|            4726     0.25954693E-007     0.10000000E+002                7
 RTBSE| Simulation step         Convergence     Electron number  ETRS Iterations
 RTBSE|            4727     0.24768586E-007     0.10000000E+002                7
 RTBSE| Simulation step         Convergence     Electron number  ETRS Iterations
 RTBSE|            4728     0.23613242E-007     0.10000000E+002                7
 RTBSE| Simulation step         Convergence     Electron number  ETRS Iterations
 RTBSE|            4729     0.22227775E-007     0.10000000E+002                7
 RTBSE| Simulation step         Convergence     Electron number  ETRS Iterations
 RTBSE|            4730     0.20935817E-007     0.10000000E+002                7
 RTBSE| Simulation step         Convergence     Electron number  ETRS Iterations
 RTBSE|            4731     0.18654971E-007     0.10000000E+002                7
 RTBSE| Simulation step         Convergence     Electron number  ETRS Iterations
 RTBSE|            4732     0.16313789E-007     0.10000000E+002                7
 RTBSE| Simulation step         Convergence     Electron number  ETRS Iterations
 RTBSE|            4733     0.13923102E-007     0.10000000E+002                7
 RTBSE| Simulation step         Convergence     Electron number  ETRS Iterations
 RTBSE|            4734     0.78394384E-007     0.10000000E+002                6
 RTBSE| Simulation step         Convergence     Electron number  ETRS Iterations
 RTBSE|            4735     0.50730274E-007     0.10000000E+002                6
 RTBSE| Simulation step         Convergence     Electron number  ETRS Iterations
 RTBSE|            4736     0.45715265E-007     0.10000000E+002                6
 RTBSE| Simulation step         Convergence     Electron number  ETRS Iterations
 RTBSE|            4737     0.70842816E-007     0.10000000E+002                6
 RTBSE| Simulation step         Convergence     Electron number  ETRS Iterations
 RTBSE|            4738     0.94434706E-007     0.10000000E+002                6
 RTBSE| Simulation step         Convergence     Electron number  ETRS Iterations
 RTBSE|            4739     0.17207999E-007     0.10000000E+002                7
 RTBSE| Simulation step         Convergence     Electron number  ETRS Iterations
 RTBSE|            4740     0.19779964E-007     0.10000000E+002                7
 RTBSE| Simulation step         Convergence     Electron number  ETRS Iterations
 RTBSE|            4741     0.21274506E-007     0.10000000E+002                7
 RTBSE| Simulation step         Convergence     Electron number  ETRS Iterations
 RTBSE|            4742     0.21677297E-007     0.10000000E+002                7
 RTBSE| Simulation step         Convergence     Electron number  ETRS Iterations
 RTBSE|            4743     0.21136248E-007     0.10000000E+002                7
 RTBSE| Simulation step         Convergence     Electron number  ETRS Iterations
 RTBSE|            4744     0.19806076E-007     0.10000000E+002                7
 RTBSE| Simulation step         Convergence     Electron number  ETRS Iterations
 RTBSE|            4745     0.18040992E-007     0.10000000E+002                7
 RTBSE| Simulation step         Convergence     Electron number  ETRS Iterations
 RTBSE|            4746     0.95720436E-007     0.10000000E+002                6
 RTBSE| Simulation step         Convergence     Electron number  ETRS Iterations
 RTBSE|            4747     0.86899562E-007     0.10000000E+002                6
 RTBSE| Simulation step         Convergence     Electron number  ETRS Iterations
 RTBSE|            4748     0.80236723E-007     0.10000000E+002                6
 RTBSE| Simulation step         Convergence     Electron number  ETRS Iterations
 RTBSE|            4749     0.77090878E-007     0.10000000E+002                6
 RTBSE| Simulation step         Convergence     Electron number  ETRS Iterations
 RTBSE|            4750     0.78189449E-007     0.10000000E+002                6
 RTBSE| Simulation step         Convergence     Electron number  ETRS Iterations
 RTBSE|            4751     0.83553896E-007     0.10000000E+002                6
 RTBSE| Simulation step         Convergence     Electron number  ETRS Iterations
 RTBSE|            4752     0.92936417E-007     0.10000000E+002                6
 RTBSE| Simulation step         Convergence     Electron number  ETRS Iterations
 RTBSE|            4753     0.16917262E-007     0.10000000E+002                7
 RTBSE| Simulation step         Convergence     Electron number  ETRS Iterations
 RTBSE|            4754     0.18395662E-007     0.10000000E+002                7
 RTBSE| Simulation step         Convergence     Electron number  ETRS Iterations
 RTBSE|            4755     0.19370779E-007     0.10000000E+002                7
 RTBSE| Simulation step         Convergence     Electron number  ETRS Iterations
 RTBSE|            4756     0.19521299E-007     0.10000000E+002                7
 RTBSE| Simulation step         Convergence     Electron number  ETRS Iterations
 RTBSE|            4757     0.18370220E-007     0.10000000E+002                7
 RTBSE| Simulation step         Convergence     Electron number  ETRS Iterations
 RTBSE|            4758     0.17357569E-007     0.10000000E+002                7
 RTBSE| Simulation step         Convergence     Electron number  ETRS Iterations
 RTBSE|            4759     0.15421073E-007     0.10000000E+002                7
 RTBSE| Simulation step         Convergence     Electron number  ETRS Iterations
 RTBSE|            4760     0.97376075E-007     0.10000000E+002                6
 RTBSE| Simulation step         Convergence     Electron number  ETRS Iterations
 RTBSE|            4761     0.60521757E-007     0.10000000E+002                6
 RTBSE| Simulation step         Convergence     Electron number  ETRS Iterations
 RTBSE|            4762     0.88982725E-007     0.10000000E+002                6
 RTBSE| Simulation step         Convergence     Electron number  ETRS Iterations
 RTBSE|            4763     0.22373673E-007     0.10000000E+002                7
 RTBSE| Simulation step         Convergence     Electron number  ETRS Iterations
 RTBSE|            4764     0.31455431E-007     0.10000000E+002                7
 RTBSE| Simulation step         Convergence     Electron number  ETRS Iterations
 RTBSE|            4765     0.39269492E-007     0.10000000E+002                7
 RTBSE| Simulation step         Convergence     Electron number  ETRS Iterations
 RTBSE|            4766     0.45199371E-007     0.10000000E+002                7
 RTBSE| Simulation step         Convergence     Electron number  ETRS Iterations
 RTBSE|            4767     0.48831331E-007     0.10000000E+002                7
 RTBSE| Simulation step         Convergence     Electron number  ETRS Iterations
 RTBSE|            4768     0.50148326E-007     0.10000000E+002                7
 RTBSE| Simulation step         Convergence     Electron number  ETRS Iterations
 RTBSE|            4769     0.49359876E-007     0.10000000E+002                7
 RTBSE| Simulation step         Convergence     Electron number  ETRS Iterations
 RTBSE|            4770     0.46945596E-007     0.10000000E+002                7
 RTBSE| Simulation step         Convergence     Electron number  ETRS Iterations
 RTBSE|            4771     0.43422110E-007     0.10000000E+002                7
 RTBSE| Simulation step         Convergence     Electron number  ETRS Iterations
 RTBSE|            4772     0.39396903E-007     0.10000000E+002                7
 RTBSE| Simulation step         Convergence     Electron number  ETRS Iterations
 RTBSE|            4773     0.35379000E-007     0.10000000E+002                7
 RTBSE| Simulation step         Convergence     Electron number  ETRS Iterations
 RTBSE|            4774     0.31802067E-007     0.10000000E+002                7
 RTBSE| Simulation step         Convergence     Electron number  ETRS Iterations
 RTBSE|            4775     0.28974801E-007     0.10000000E+002                7
 RTBSE| Simulation step         Convergence     Electron number  ETRS Iterations
 RTBSE|            4776     0.27040420E-007     0.10000000E+002                7
 RTBSE| Simulation step         Convergence     Electron number  ETRS Iterations
 RTBSE|            4777     0.25902317E-007     0.10000000E+002                7
 RTBSE| Simulation step         Convergence     Electron number  ETRS Iterations
 RTBSE|            4778     0.25302082E-007     0.10000000E+002                7
 RTBSE| Simulation step         Convergence     Electron number  ETRS Iterations
 RTBSE|            4779     0.24859356E-007     0.10000000E+002                7
 RTBSE| Simulation step         Convergence     Electron number  ETRS Iterations
 RTBSE|            4780     0.24110059E-007     0.10000000E+002                7
 RTBSE| Simulation step         Convergence     Electron number  ETRS Iterations
 RTBSE|            4781     0.23188274E-007     0.10000000E+002                7
 RTBSE| Simulation step         Convergence     Electron number  ETRS Iterations
 RTBSE|            4782     0.21503631E-007     0.10000000E+002                7
 RTBSE| Simulation step         Convergence     Electron number  ETRS Iterations
 RTBSE|            4783     0.18574757E-007     0.10000000E+002                7
 RTBSE| Simulation step         Convergence     Electron number  ETRS Iterations
 RTBSE|            4784     0.16013434E-007     0.10000000E+002                7
 RTBSE| Simulation step         Convergence     Electron number  ETRS Iterations
 RTBSE|            4785     0.95427374E-007     0.10000000E+002                6
 RTBSE| Simulation step         Convergence     Electron number  ETRS Iterations
 RTBSE|            4786     0.67577008E-007     0.10000000E+002                6
 RTBSE| Simulation step         Convergence     Electron number  ETRS Iterations
 RTBSE|            4787     0.36365070E-007     0.10000000E+002                6
 RTBSE| Simulation step         Convergence     Electron number  ETRS Iterations
 RTBSE|            4788     0.58651304E-007     0.10000000E+002                6
 RTBSE| Simulation step         Convergence     Electron number  ETRS Iterations
 RTBSE|            4789     0.83471831E-007     0.10000000E+002                6
 RTBSE| Simulation step         Convergence     Electron number  ETRS Iterations
 RTBSE|            4790     0.15569808E-007     0.10000000E+002                7
 RTBSE| Simulation step         Convergence     Electron number  ETRS Iterations
 RTBSE|            4791     0.18364300E-007     0.10000000E+002                7
 RTBSE| Simulation step         Convergence     Electron number  ETRS Iterations
 RTBSE|            4792     0.19971051E-007     0.10000000E+002                7
 RTBSE| Simulation step         Convergence     Electron number  ETRS Iterations
 RTBSE|            4793     0.20404820E-007     0.10000000E+002                7
 RTBSE| Simulation step         Convergence     Electron number  ETRS Iterations
 RTBSE|            4794     0.19785560E-007     0.10000000E+002                7
 RTBSE| Simulation step         Convergence     Electron number  ETRS Iterations
 RTBSE|            4795     0.18346144E-007     0.10000000E+002                7
 RTBSE| Simulation step         Convergence     Electron number  ETRS Iterations
 RTBSE|            4796     0.96123904E-007     0.10000000E+002                6
 RTBSE| Simulation step         Convergence     Electron number  ETRS Iterations
 RTBSE|            4797     0.83887904E-007     0.10000000E+002                6
 RTBSE| Simulation step         Convergence     Electron number  ETRS Iterations
 RTBSE|            4798     0.74715633E-007     0.10000000E+002                6
 RTBSE| Simulation step         Convergence     Electron number  ETRS Iterations
 RTBSE|            4799     0.68565829E-007     0.10000000E+002                6
 RTBSE| Simulation step         Convergence     Electron number  ETRS Iterations
 RTBSE|            4800     0.66884212E-007     0.10000000E+002                6
 RTBSE| Simulation step         Convergence     Electron number  ETRS Iterations
 RTBSE|            4801     0.70609575E-007     0.10000000E+002                6
 RTBSE| Simulation step         Convergence     Electron number  ETRS Iterations
 RTBSE|            4802     0.78484498E-007     0.10000000E+002                6
 RTBSE| Simulation step         Convergence     Electron number  ETRS Iterations
 RTBSE|            4803     0.90753671E-007     0.10000000E+002                6
 RTBSE| Simulation step         Convergence     Electron number  ETRS Iterations
 RTBSE|            4804     0.18060776E-007     0.10000000E+002                7
 RTBSE| Simulation step         Convergence     Electron number  ETRS Iterations
 RTBSE|            4805     0.20133162E-007     0.10000000E+002                7
 RTBSE| Simulation step         Convergence     Electron number  ETRS Iterations
 RTBSE|            4806     0.21679820E-007     0.10000000E+002                7
 RTBSE| Simulation step         Convergence     Electron number  ETRS Iterations
 RTBSE|            4807     0.22287217E-007     0.10000000E+002                7
 RTBSE| Simulation step         Convergence     Electron number  ETRS Iterations
 RTBSE|            4808     0.21589915E-007     0.10000000E+002                7
 RTBSE| Simulation step         Convergence     Electron number  ETRS Iterations
 RTBSE|            4809     0.19666400E-007     0.10000000E+002                7
 RTBSE| Simulation step         Convergence     Electron number  ETRS Iterations
 RTBSE|            4810     0.17973203E-007     0.10000000E+002                7
 RTBSE| Simulation step         Convergence     Electron number  ETRS Iterations
 RTBSE|            4811     0.14933241E-007     0.10000000E+002                7
 RTBSE| Simulation step         Convergence     Electron number  ETRS Iterations
 RTBSE|            4812     0.81592782E-007     0.10000000E+002                6
 RTBSE| Simulation step         Convergence     Electron number  ETRS Iterations
 RTBSE|            4813     0.72702309E-007     0.10000000E+002                6
 RTBSE| Simulation step         Convergence     Electron number  ETRS Iterations
 RTBSE|            4814     0.19140751E-007     0.10000000E+002                7
 RTBSE| Simulation step         Convergence     Electron number  ETRS Iterations
 RTBSE|            4815     0.28797160E-007     0.10000000E+002                7
 RTBSE| Simulation step         Convergence     Electron number  ETRS Iterations
 RTBSE|            4816     0.37214357E-007     0.10000000E+002                7
 RTBSE| Simulation step         Convergence     Electron number  ETRS Iterations
 RTBSE|            4817     0.43664472E-007     0.10000000E+002                7
 RTBSE| Simulation step         Convergence     Electron number  ETRS Iterations
 RTBSE|            4818     0.47667525E-007     0.10000000E+002                7
 RTBSE| Simulation step         Convergence     Electron number  ETRS Iterations
 RTBSE|            4819     0.49089277E-007     0.10000000E+002                7
 RTBSE| Simulation step         Convergence     Electron number  ETRS Iterations
 RTBSE|            4820     0.48148194E-007     0.10000000E+002                7
 RTBSE| Simulation step         Convergence     Electron number  ETRS Iterations
 RTBSE|            4821     0.45318140E-007     0.10000000E+002                7
 RTBSE| Simulation step         Convergence     Electron number  ETRS Iterations
 RTBSE|            4822     0.41319086E-007     0.10000000E+002                7
 RTBSE| Simulation step         Convergence     Electron number  ETRS Iterations
 RTBSE|            4823     0.36805219E-007     0.10000000E+002                7
 RTBSE| Simulation step         Convergence     Electron number  ETRS Iterations
 RTBSE|            4824     0.32471756E-007     0.10000000E+002                7
 RTBSE| Simulation step         Convergence     Electron number  ETRS Iterations
 RTBSE|            4825     0.28827819E-007     0.10000000E+002                7
 RTBSE| Simulation step         Convergence     Electron number  ETRS Iterations
 RTBSE|            4826     0.26237559E-007     0.10000000E+002                7
 RTBSE| Simulation step         Convergence     Electron number  ETRS Iterations
 RTBSE|            4827     0.24868134E-007     0.10000000E+002                7
 RTBSE| Simulation step         Convergence     Electron number  ETRS Iterations
 RTBSE|            4828     0.24599735E-007     0.10000000E+002                7
 RTBSE| Simulation step         Convergence     Electron number  ETRS Iterations
 RTBSE|            4829     0.25118965E-007     0.10000000E+002                7
 RTBSE| Simulation step         Convergence     Electron number  ETRS Iterations
 RTBSE|            4830     0.25900747E-007     0.10000000E+002                7
 RTBSE| Simulation step         Convergence     Electron number  ETRS Iterations
 RTBSE|            4831     0.26326923E-007     0.10000000E+002                7
 RTBSE| Simulation step         Convergence     Electron number  ETRS Iterations
 RTBSE|            4832     0.25929546E-007     0.10000000E+002                7
 RTBSE| Simulation step         Convergence     Electron number  ETRS Iterations
 RTBSE|            4833     0.25023242E-007     0.10000000E+002                7
 RTBSE| Simulation step         Convergence     Electron number  ETRS Iterations
 RTBSE|            4834     0.22724159E-007     0.10000000E+002                7
 RTBSE| Simulation step         Convergence     Electron number  ETRS Iterations
 RTBSE|            4835     0.18956373E-007     0.10000000E+002                7
 RTBSE| Simulation step         Convergence     Electron number  ETRS Iterations
 RTBSE|            4836     0.16057831E-007     0.10000000E+002                7
 RTBSE| Simulation step         Convergence     Electron number  ETRS Iterations
 RTBSE|            4837     0.91491715E-007     0.10000000E+002                6
 RTBSE| Simulation step         Convergence     Electron number  ETRS Iterations
 RTBSE|            4838     0.60000799E-007     0.10000000E+002                6
 RTBSE| Simulation step         Convergence     Electron number  ETRS Iterations
 RTBSE|            4839     0.42519398E-007     0.10000000E+002                6
 RTBSE| Simulation step         Convergence     Electron number  ETRS Iterations
 RTBSE|            4840     0.68081263E-007     0.10000000E+002                6
 RTBSE| Simulation step         Convergence     Electron number  ETRS Iterations
 RTBSE|            4841     0.91329445E-007     0.10000000E+002                6
 RTBSE| Simulation step         Convergence     Electron number  ETRS Iterations
 RTBSE|            4842     0.16597428E-007     0.10000000E+002                7
 RTBSE| Simulation step         Convergence     Electron number  ETRS Iterations
 RTBSE|            4843     0.18698219E-007     0.10000000E+002                7
 RTBSE| Simulation step         Convergence     Electron number  ETRS Iterations
 RTBSE|            4844     0.19506765E-007     0.10000000E+002                7
 RTBSE| Simulation step         Convergence     Electron number  ETRS Iterations
 RTBSE|            4845     0.19162703E-007     0.10000000E+002                7
 RTBSE| Simulation step         Convergence     Electron number  ETRS Iterations
 RTBSE|            4846     0.17876792E-007     0.10000000E+002                7
 RTBSE| Simulation step         Convergence     Electron number  ETRS Iterations
 RTBSE|            4847     0.94315944E-007     0.10000000E+002                6
 RTBSE| Simulation step         Convergence     Electron number  ETRS Iterations
 RTBSE|            4848     0.81876724E-007     0.10000000E+002                6
 RTBSE| Simulation step         Convergence     Electron number  ETRS Iterations
 RTBSE|            4849     0.71656580E-007     0.10000000E+002                6
 RTBSE| Simulation step         Convergence     Electron number  ETRS Iterations
 RTBSE|            4850     0.65563842E-007     0.10000000E+002                6
 RTBSE| Simulation step         Convergence     Electron number  ETRS Iterations
 RTBSE|            4851     0.64675001E-007     0.10000000E+002                6
 RTBSE| Simulation step         Convergence     Electron number  ETRS Iterations
 RTBSE|            4852     0.69131936E-007     0.10000000E+002                6
 RTBSE| Simulation step         Convergence     Electron number  ETRS Iterations
 RTBSE|            4853     0.78248470E-007     0.10000000E+002                6
 RTBSE| Simulation step         Convergence     Electron number  ETRS Iterations
 RTBSE|            4854     0.90614136E-007     0.10000000E+002                6
 RTBSE| Simulation step         Convergence     Electron number  ETRS Iterations
 RTBSE|            4855     0.18454494E-007     0.10000000E+002                7
 RTBSE| Simulation step         Convergence     Electron number  ETRS Iterations
 RTBSE|            4856     0.20983886E-007     0.10000000E+002                7
 RTBSE| Simulation step         Convergence     Electron number  ETRS Iterations
 RTBSE|            4857     0.23056118E-007     0.10000000E+002                7
 RTBSE| Simulation step         Convergence     Electron number  ETRS Iterations
 RTBSE|            4858     0.24225546E-007     0.10000000E+002                7
 RTBSE| Simulation step         Convergence     Electron number  ETRS Iterations
 RTBSE|            4859     0.24041651E-007     0.10000000E+002                7
 RTBSE| Simulation step         Convergence     Electron number  ETRS Iterations
 RTBSE|            4860     0.22119433E-007     0.10000000E+002                7
 RTBSE| Simulation step         Convergence     Electron number  ETRS Iterations
 RTBSE|            4861     0.19976747E-007     0.10000000E+002                7
 RTBSE| Simulation step         Convergence     Electron number  ETRS Iterations
 RTBSE|            4862     0.17004212E-007     0.10000000E+002                7
 RTBSE| Simulation step         Convergence     Electron number  ETRS Iterations
 RTBSE|            4863     0.97120118E-007     0.10000000E+002                6
 RTBSE| Simulation step         Convergence     Electron number  ETRS Iterations
 RTBSE|            4864     0.60884666E-007     0.10000000E+002                6
 RTBSE| Simulation step         Convergence     Electron number  ETRS Iterations
 RTBSE|            4865     0.16589306E-007     0.10000000E+002                7
 RTBSE| Simulation step         Convergence     Electron number  ETRS Iterations
 RTBSE|            4866     0.26562063E-007     0.10000000E+002                7
 RTBSE| Simulation step         Convergence     Electron number  ETRS Iterations
 RTBSE|            4867     0.35195594E-007     0.10000000E+002                7
 RTBSE| Simulation step         Convergence     Electron number  ETRS Iterations
 RTBSE|            4868     0.41653994E-007     0.10000000E+002                7
 RTBSE| Simulation step         Convergence     Electron number  ETRS Iterations
 RTBSE|            4869     0.45455381E-007     0.10000000E+002                7
 RTBSE| Simulation step         Convergence     Electron number  ETRS Iterations
 RTBSE|            4870     0.46496033E-007     0.10000000E+002                7
 RTBSE| Simulation step         Convergence     Electron number  ETRS Iterations
 RTBSE|            4871     0.45113637E-007     0.10000000E+002                7
 RTBSE| Simulation step         Convergence     Electron number  ETRS Iterations
 RTBSE|            4872     0.41907017E-007     0.10000000E+002                7
 RTBSE| Simulation step         Convergence     Electron number  ETRS Iterations
 RTBSE|            4873     0.37641828E-007     0.10000000E+002                7
 RTBSE| Simulation step         Convergence     Electron number  ETRS Iterations
 RTBSE|            4874     0.33107609E-007     0.10000000E+002                7
 RTBSE| Simulation step         Convergence     Electron number  ETRS Iterations
 RTBSE|            4875     0.28974336E-007     0.10000000E+002                7
 RTBSE| Simulation step         Convergence     Electron number  ETRS Iterations
 RTBSE|            4876     0.25772076E-007     0.10000000E+002                7
 RTBSE| Simulation step         Convergence     Electron number  ETRS Iterations
 RTBSE|            4877     0.23850177E-007     0.10000000E+002                7
 RTBSE| Simulation step         Convergence     Electron number  ETRS Iterations
 RTBSE|            4878     0.23337895E-007     0.10000000E+002                7
 RTBSE| Simulation step         Convergence     Electron number  ETRS Iterations
 RTBSE|            4879     0.24097287E-007     0.10000000E+002                7
 RTBSE| Simulation step         Convergence     Electron number  ETRS Iterations
 RTBSE|            4880     0.25735946E-007     0.10000000E+002                7
 RTBSE| Simulation step         Convergence     Electron number  ETRS Iterations
 RTBSE|            4881     0.27701956E-007     0.10000000E+002                7
 RTBSE| Simulation step         Convergence     Electron number  ETRS Iterations
 RTBSE|            4882     0.29317836E-007     0.10000000E+002                7
 RTBSE| Simulation step         Convergence     Electron number  ETRS Iterations
 RTBSE|            4883     0.29941469E-007     0.10000000E+002                7
 RTBSE| Simulation step         Convergence     Electron number  ETRS Iterations
 RTBSE|            4884     0.29219816E-007     0.10000000E+002                7
 RTBSE| Simulation step         Convergence     Electron number  ETRS Iterations
 RTBSE|            4885     0.27643253E-007     0.10000000E+002                7
 RTBSE| Simulation step         Convergence     Electron number  ETRS Iterations
 RTBSE|            4886     0.24279234E-007     0.10000000E+002                7
 RTBSE| Simulation step         Convergence     Electron number  ETRS Iterations
 RTBSE|            4887     0.19777364E-007     0.10000000E+002                7
 RTBSE| Simulation step         Convergence     Electron number  ETRS Iterations
 RTBSE|            4888     0.16392751E-007     0.10000000E+002                7
 RTBSE| Simulation step         Convergence     Electron number  ETRS Iterations
 RTBSE|            4889     0.88227182E-007     0.10000000E+002                6
 RTBSE| Simulation step         Convergence     Electron number  ETRS Iterations
 RTBSE|            4890     0.51880563E-007     0.10000000E+002                6
 RTBSE| Simulation step         Convergence     Electron number  ETRS Iterations
 RTBSE|            4891     0.54906140E-007     0.10000000E+002                6
 RTBSE| Simulation step         Convergence     Electron number  ETRS Iterations
 RTBSE|            4892     0.81650603E-007     0.10000000E+002                6
 RTBSE| Simulation step         Convergence     Electron number  ETRS Iterations
 RTBSE|            4893     0.15398188E-007     0.10000000E+002                7
 RTBSE| Simulation step         Convergence     Electron number  ETRS Iterations
 RTBSE|            4894     0.18220535E-007     0.10000000E+002                7
 RTBSE| Simulation step         Convergence     Electron number  ETRS Iterations
 RTBSE|            4895     0.19606120E-007     0.10000000E+002                7
 RTBSE| Simulation step         Convergence     Electron number  ETRS Iterations
 RTBSE|            4896     0.19623161E-007     0.10000000E+002                7
 RTBSE| Simulation step         Convergence     Electron number  ETRS Iterations
 RTBSE|            4897     0.18508225E-007     0.10000000E+002                7
 RTBSE| Simulation step         Convergence     Electron number  ETRS Iterations
 RTBSE|            4898     0.97978626E-007     0.10000000E+002                6
 RTBSE| Simulation step         Convergence     Electron number  ETRS Iterations
 RTBSE|            4899     0.84104197E-007     0.10000000E+002                6
 RTBSE| Simulation step         Convergence     Electron number  ETRS Iterations
 RTBSE|            4900     0.71874167E-007     0.10000000E+002                6
 RTBSE| Simulation step         Convergence     Electron number  ETRS Iterations
 RTBSE|            4901     0.63633882E-007     0.10000000E+002                6
 RTBSE| Simulation step         Convergence     Electron number  ETRS Iterations
 RTBSE|            4902     0.60921331E-007     0.10000000E+002                6
 RTBSE| Simulation step         Convergence     Electron number  ETRS Iterations
 RTBSE|            4903     0.64277132E-007     0.10000000E+002                6
 RTBSE| Simulation step         Convergence     Electron number  ETRS Iterations
 RTBSE|            4904     0.73285662E-007     0.10000000E+002                6
 RTBSE| Simulation step         Convergence     Electron number  ETRS Iterations
 RTBSE|            4905     0.86539964E-007     0.10000000E+002                6
 RTBSE| Simulation step         Convergence     Electron number  ETRS Iterations
 RTBSE|            4906     0.17844622E-007     0.10000000E+002                7
 RTBSE| Simulation step         Convergence     Electron number  ETRS Iterations
 RTBSE|            4907     0.20739325E-007     0.10000000E+002                7
 RTBSE| Simulation step         Convergence     Electron number  ETRS Iterations
 RTBSE|            4908     0.23268625E-007     0.10000000E+002                7
 RTBSE| Simulation step         Convergence     Electron number  ETRS Iterations
 RTBSE|            4909     0.24933361E-007     0.10000000E+002                7
 RTBSE| Simulation step         Convergence     Electron number  ETRS Iterations
 RTBSE|            4910     0.25230704E-007     0.10000000E+002                7
 RTBSE| Simulation step         Convergence     Electron number  ETRS Iterations
 RTBSE|            4911     0.23742721E-007     0.10000000E+002                7
 RTBSE| Simulation step         Convergence     Electron number  ETRS Iterations
 RTBSE|            4912     0.20930092E-007     0.10000000E+002                7
 RTBSE| Simulation step         Convergence     Electron number  ETRS Iterations
 RTBSE|            4913     0.18160686E-007     0.10000000E+002                7
 RTBSE| Simulation step         Convergence     Electron number  ETRS Iterations
 RTBSE|            4914     0.13936055E-007     0.10000000E+002                7
 RTBSE| Simulation step         Convergence     Electron number  ETRS Iterations
 RTBSE|            4915     0.60823935E-007     0.10000000E+002                6
 RTBSE| Simulation step         Convergence     Electron number  ETRS Iterations
 RTBSE|            4916     0.87322904E-007     0.10000000E+002                6
 RTBSE| Simulation step         Convergence     Electron number  ETRS Iterations
 RTBSE|            4917     0.23171629E-007     0.10000000E+002                7
 RTBSE| Simulation step         Convergence     Electron number  ETRS Iterations
 RTBSE|            4918     0.31504461E-007     0.10000000E+002                7
 RTBSE| Simulation step         Convergence     Electron number  ETRS Iterations
 RTBSE|            4919     0.37717306E-007     0.10000000E+002                7
 RTBSE| Simulation step         Convergence     Electron number  ETRS Iterations
 RTBSE|            4920     0.41356754E-007     0.10000000E+002                7
 RTBSE| Simulation step         Convergence     Electron number  ETRS Iterations
 RTBSE|            4921     0.42376956E-007     0.10000000E+002                7
 RTBSE| Simulation step         Convergence     Electron number  ETRS Iterations
 RTBSE|            4922     0.41134031E-007     0.10000000E+002                7
 RTBSE| Simulation step         Convergence     Electron number  ETRS Iterations
 RTBSE|            4923     0.38192058E-007     0.10000000E+002                7
 RTBSE| Simulation step         Convergence     Electron number  ETRS Iterations
 RTBSE|            4924     0.34302530E-007     0.10000000E+002                7
 RTBSE| Simulation step         Convergence     Electron number  ETRS Iterations
 RTBSE|            4925     0.30215537E-007     0.10000000E+002                7
 RTBSE| Simulation step         Convergence     Electron number  ETRS Iterations
 RTBSE|            4926     0.26563800E-007     0.10000000E+002                7
 RTBSE| Simulation step         Convergence     Electron number  ETRS Iterations
 RTBSE|            4927     0.23871220E-007     0.10000000E+002                7
 RTBSE| Simulation step         Convergence     Electron number  ETRS Iterations
 RTBSE|            4928     0.22493719E-007     0.10000000E+002                7
 RTBSE| Simulation step         Convergence     Electron number  ETRS Iterations
 RTBSE|            4929     0.22586206E-007     0.10000000E+002                7
 RTBSE| Simulation step         Convergence     Electron number  ETRS Iterations
 RTBSE|            4930     0.24087276E-007     0.10000000E+002                7
 RTBSE| Simulation step         Convergence     Electron number  ETRS Iterations
 RTBSE|            4931     0.26630604E-007     0.10000000E+002                7
 RTBSE| Simulation step         Convergence     Electron number  ETRS Iterations
 RTBSE|            4932     0.29613310E-007     0.10000000E+002                7
 RTBSE| Simulation step         Convergence     Electron number  ETRS Iterations
 RTBSE|            4933     0.32263812E-007     0.10000000E+002                7
 RTBSE| Simulation step         Convergence     Electron number  ETRS Iterations
 RTBSE|            4934     0.33827720E-007     0.10000000E+002                7
 RTBSE| Simulation step         Convergence     Electron number  ETRS Iterations
 RTBSE|            4935     0.33772900E-007     0.10000000E+002                7
 RTBSE| Simulation step         Convergence     Electron number  ETRS Iterations
 RTBSE|            4936     0.32075654E-007     0.10000000E+002                7
 RTBSE| Simulation step         Convergence     Electron number  ETRS Iterations
 RTBSE|            4937     0.28978841E-007     0.10000000E+002                7
 RTBSE| Simulation step         Convergence     Electron number  ETRS Iterations
 RTBSE|            4938     0.24012627E-007     0.10000000E+002                7
 RTBSE| Simulation step         Convergence     Electron number  ETRS Iterations
 RTBSE|            4939     0.19648395E-007     0.10000000E+002                7
 RTBSE| Simulation step         Convergence     Electron number  ETRS Iterations
 RTBSE|            4940     0.15270096E-007     0.10000000E+002                7
 RTBSE| Simulation step         Convergence     Electron number  ETRS Iterations
 RTBSE|            4941     0.71580444E-007     0.10000000E+002                6
 RTBSE| Simulation step         Convergence     Electron number  ETRS Iterations
 RTBSE|            4942     0.46690565E-007     0.10000000E+002                6
 RTBSE| Simulation step         Convergence     Electron number  ETRS Iterations
 RTBSE|            4943     0.74891807E-007     0.10000000E+002                6
 RTBSE| Simulation step         Convergence     Electron number  ETRS Iterations
 RTBSE|            4944     0.99229376E-007     0.10000000E+002                6
 RTBSE| Simulation step         Convergence     Electron number  ETRS Iterations
 RTBSE|            4945     0.17822116E-007     0.10000000E+002                7
 RTBSE| Simulation step         Convergence     Electron number  ETRS Iterations
 RTBSE|            4946     0.19543167E-007     0.10000000E+002                7
 RTBSE| Simulation step         Convergence     Electron number  ETRS Iterations
 RTBSE|            4947     0.19742715E-007     0.10000000E+002                7
 RTBSE| Simulation step         Convergence     Electron number  ETRS Iterations
 RTBSE|            4948     0.18631462E-007     0.10000000E+002                7
 RTBSE| Simulation step         Convergence     Electron number  ETRS Iterations
 RTBSE|            4949     0.98079829E-007     0.10000000E+002                6
 RTBSE| Simulation step         Convergence     Electron number  ETRS Iterations
 RTBSE|            4950     0.82649968E-007     0.10000000E+002                6
 RTBSE| Simulation step         Convergence     Electron number  ETRS Iterations
 RTBSE|            4951     0.68588742E-007     0.10000000E+002                6
 RTBSE| Simulation step         Convergence     Electron number  ETRS Iterations
 RTBSE|            4952     0.58596213E-007     0.10000000E+002                6
 RTBSE| Simulation step         Convergence     Electron number  ETRS Iterations
 RTBSE|            4953     0.54521097E-007     0.10000000E+002                6
 RTBSE| Simulation step         Convergence     Electron number  ETRS Iterations
 RTBSE|            4954     0.57072942E-007     0.10000000E+002                6
 RTBSE| Simulation step         Convergence     Electron number  ETRS Iterations
 RTBSE|            4955     0.65823560E-007     0.10000000E+002                6
 RTBSE| Simulation step         Convergence     Electron number  ETRS Iterations
 RTBSE|            4956     0.79409860E-007     0.10000000E+002                6
 RTBSE| Simulation step         Convergence     Electron number  ETRS Iterations
 RTBSE|            4957     0.95803400E-007     0.10000000E+002                6
 RTBSE| Simulation step         Convergence     Electron number  ETRS Iterations
 RTBSE|            4958     0.19691924E-007     0.10000000E+002                7
 RTBSE| Simulation step         Convergence     Electron number  ETRS Iterations
 RTBSE|            4959     0.22488149E-007     0.10000000E+002                7
 RTBSE| Simulation step         Convergence     Electron number  ETRS Iterations
 RTBSE|            4960     0.24513460E-007     0.10000000E+002                7
 RTBSE| Simulation step         Convergence     Electron number  ETRS Iterations
 RTBSE|            4961     0.25286971E-007     0.10000000E+002                7
 RTBSE| Simulation step         Convergence     Electron number  ETRS Iterations
 RTBSE|            4962     0.24378224E-007     0.10000000E+002                7
 RTBSE| Simulation step         Convergence     Electron number  ETRS Iterations
 RTBSE|            4963     0.21522158E-007     0.10000000E+002                7
 RTBSE| Simulation step         Convergence     Electron number  ETRS Iterations
 RTBSE|            4964     0.18937785E-007     0.10000000E+002                7
 RTBSE| Simulation step         Convergence     Electron number  ETRS Iterations
 RTBSE|            4965     0.15269686E-007     0.10000000E+002                7
 RTBSE| Simulation step         Convergence     Electron number  ETRS Iterations
 RTBSE|            4966     0.76515001E-007     0.10000000E+002                6
 RTBSE| Simulation step         Convergence     Electron number  ETRS Iterations
 RTBSE|            4967     0.66424857E-007     0.10000000E+002                6
 RTBSE| Simulation step         Convergence     Electron number  ETRS Iterations
 RTBSE|            4968     0.17700870E-007     0.10000000E+002                7
 RTBSE| Simulation step         Convergence     Electron number  ETRS Iterations
 RTBSE|            4969     0.25800402E-007     0.10000000E+002                7
 RTBSE| Simulation step         Convergence     Electron number  ETRS Iterations
 RTBSE|            4970     0.32127461E-007     0.10000000E+002                7
 RTBSE| Simulation step         Convergence     Electron number  ETRS Iterations
 RTBSE|            4971     0.36191186E-007     0.10000000E+002                7
 RTBSE| Simulation step         Convergence     Electron number  ETRS Iterations
 RTBSE|            4972     0.37849909E-007     0.10000000E+002                7
 RTBSE| Simulation step         Convergence     Electron number  ETRS Iterations
 RTBSE|            4973     0.37327668E-007     0.10000000E+002                7
 RTBSE| Simulation step         Convergence     Electron number  ETRS Iterations
 RTBSE|            4974     0.35082613E-007     0.10000000E+002                7
 RTBSE| Simulation step         Convergence     Electron number  ETRS Iterations
 RTBSE|            4975     0.31798508E-007     0.10000000E+002                7
 RTBSE| Simulation step         Convergence     Electron number  ETRS Iterations
 RTBSE|            4976     0.28194351E-007     0.10000000E+002                7
 RTBSE| Simulation step         Convergence     Electron number  ETRS Iterations
 RTBSE|            4977     0.24938272E-007     0.10000000E+002                7
 RTBSE| Simulation step         Convergence     Electron number  ETRS Iterations
 RTBSE|            4978     0.22638258E-007     0.10000000E+002                7
 RTBSE| Simulation step         Convergence     Electron number  ETRS Iterations
 RTBSE|            4979     0.21729692E-007     0.10000000E+002                7
 RTBSE| Simulation step         Convergence     Electron number  ETRS Iterations
 RTBSE|            4980     0.22406232E-007     0.10000000E+002                7
 RTBSE| Simulation step         Convergence     Electron number  ETRS Iterations
 RTBSE|            4981     0.24640570E-007     0.10000000E+002                7
 RTBSE| Simulation step         Convergence     Electron number  ETRS Iterations
 RTBSE|            4982     0.27997055E-007     0.10000000E+002                7
 RTBSE| Simulation step         Convergence     Electron number  ETRS Iterations
 RTBSE|            4983     0.31815974E-007     0.10000000E+002                7
 RTBSE| Simulation step         Convergence     Electron number  ETRS Iterations
 RTBSE|            4984     0.35241176E-007     0.10000000E+002                7
 RTBSE| Simulation step         Convergence     Electron number  ETRS Iterations
 RTBSE|            4985     0.37447359E-007     0.10000000E+002                7
 RTBSE| Simulation step         Convergence     Electron number  ETRS Iterations
 RTBSE|            4986     0.37781664E-007     0.10000000E+002                7
 RTBSE| Simulation step         Convergence     Electron number  ETRS Iterations
 RTBSE|            4987     0.35944825E-007     0.10000000E+002                7
 RTBSE| Simulation step         Convergence     Electron number  ETRS Iterations
 RTBSE|            4988     0.32354635E-007     0.10000000E+002                7
 RTBSE| Simulation step         Convergence     Electron number  ETRS Iterations
 RTBSE|            4989     0.27228181E-007     0.10000000E+002                7
 RTBSE| Simulation step         Convergence     Electron number  ETRS Iterations
 RTBSE|            4990     0.21783256E-007     0.10000000E+002                7
 RTBSE| Simulation step         Convergence     Electron number  ETRS Iterations
 RTBSE|            4991     0.17245101E-007     0.10000000E+002                7
 RTBSE| Simulation step         Convergence     Electron number  ETRS Iterations
 RTBSE|            4992     0.85440895E-007     0.10000000E+002                6
 RTBSE| Simulation step         Convergence     Electron number  ETRS Iterations
 RTBSE|            4993     0.44930359E-007     0.10000000E+002                6
 RTBSE| Simulation step         Convergence     Electron number  ETRS Iterations
 RTBSE|            4994     0.65591838E-007     0.10000000E+002                6
 RTBSE| Simulation step         Convergence     Electron number  ETRS Iterations
 RTBSE|            4995     0.90755131E-007     0.10000000E+002                6
 RTBSE| Simulation step         Convergence     Electron number  ETRS Iterations
 RTBSE|            4996     0.16493637E-007     0.10000000E+002                7
 RTBSE| Simulation step         Convergence     Electron number  ETRS Iterations
 RTBSE|            4997     0.18425763E-007     0.10000000E+002                7
 RTBSE| Simulation step         Convergence     Electron number  ETRS Iterations
 RTBSE|            4998     0.18783460E-007     0.10000000E+002                7
 RTBSE| Simulation step         Convergence     Electron number  ETRS Iterations
 RTBSE|            4999     0.17782620E-007     0.10000000E+002                7
 RTBSE| Simulation step         Convergence     Electron number  ETRS Iterations
 RTBSE|            5000     0.93776464E-007     0.10000000E+002                6
 RTBSE| Simulation step         Convergence     Electron number  ETRS Iterations
 RTBSE|            5001     0.78261375E-007     0.10000000E+002                6
 RTBSE| Simulation step         Convergence     Electron number  ETRS Iterations
 RTBSE|            5002     0.63862634E-007     0.10000000E+002                6
 RTBSE| Simulation step         Convergence     Electron number  ETRS Iterations
 RTBSE|            5003     0.53206503E-007     0.10000000E+002                6
 RTBSE| Simulation step         Convergence     Electron number  ETRS Iterations
 RTBSE|            5004     0.48263835E-007     0.10000000E+002                6
 RTBSE| Simulation step         Convergence     Electron number  ETRS Iterations
 RTBSE|            5005     0.49952899E-007     0.10000000E+002                6
 RTBSE| Simulation step         Convergence     Electron number  ETRS Iterations
 RTBSE|            5006     0.57989679E-007     0.10000000E+002                6
 RTBSE| Simulation step         Convergence     Electron number  ETRS Iterations
 RTBSE|            5007     0.71281445E-007     0.10000000E+002                6
 RTBSE| Simulation step         Convergence     Electron number  ETRS Iterations
 RTBSE|            5008     0.87978382E-007     0.10000000E+002                6
 RTBSE| Simulation step         Convergence     Electron number  ETRS Iterations
 RTBSE|            5009     0.18280545E-007     0.10000000E+002                7
 RTBSE| Simulation step         Convergence     Electron number  ETRS Iterations
 RTBSE|            5010     0.21360601E-007     0.10000000E+002                7
 RTBSE| Simulation step         Convergence     Electron number  ETRS Iterations
 RTBSE|            5011     0.23868419E-007     0.10000000E+002                7
 RTBSE| Simulation step         Convergence     Electron number  ETRS Iterations
 RTBSE|            5012     0.25353883E-007     0.10000000E+002                7
 RTBSE| Simulation step         Convergence     Electron number  ETRS Iterations
 RTBSE|            5013     0.25383752E-007     0.10000000E+002                7
 RTBSE| Simulation step         Convergence     Electron number  ETRS Iterations
 RTBSE|            5014     0.23597633E-007     0.10000000E+002                7
 RTBSE| Simulation step         Convergence     Electron number  ETRS Iterations
 RTBSE|            5015     0.20420910E-007     0.10000000E+002                7
 RTBSE| Simulation step         Convergence     Electron number  ETRS Iterations
 RTBSE|            5016     0.17478062E-007     0.10000000E+002                7
 RTBSE| Simulation step         Convergence     Electron number  ETRS Iterations
 RTBSE|            5017     0.98106576E-007     0.10000000E+002                6
 RTBSE| Simulation step         Convergence     Electron number  ETRS Iterations
 RTBSE|            5018     0.56246391E-007     0.10000000E+002                6
 RTBSE| Simulation step         Convergence     Electron number  ETRS Iterations
 RTBSE|            5019     0.80153454E-007     0.10000000E+002                6
 RTBSE| Simulation step         Convergence     Electron number  ETRS Iterations
 RTBSE|            5020     0.20308594E-007     0.10000000E+002                7
 RTBSE| Simulation step         Convergence     Electron number  ETRS Iterations
 RTBSE|            5021     0.27100141E-007     0.10000000E+002                7
 RTBSE| Simulation step         Convergence     Electron number  ETRS Iterations
 RTBSE|            5022     0.31820385E-007     0.10000000E+002                7
 RTBSE| Simulation step         Convergence     Electron number  ETRS Iterations
 RTBSE|            5023     0.34199304E-007     0.10000000E+002                7
 RTBSE| Simulation step         Convergence     Electron number  ETRS Iterations
 RTBSE|            5024     0.34329458E-007     0.10000000E+002                7
 RTBSE| Simulation step         Convergence     Electron number  ETRS Iterations
 RTBSE|            5025     0.32692078E-007     0.10000000E+002                7
 RTBSE| Simulation step         Convergence     Electron number  ETRS Iterations
 RTBSE|            5026     0.29891786E-007     0.10000000E+002                7
 RTBSE| Simulation step         Convergence     Electron number  ETRS Iterations
 RTBSE|            5027     0.26724311E-007     0.10000000E+002                7
 RTBSE| Simulation step         Convergence     Electron number  ETRS Iterations
 RTBSE|            5028     0.23913171E-007     0.10000000E+002                7
 RTBSE| Simulation step         Convergence     Electron number  ETRS Iterations
 RTBSE|            5029     0.22077873E-007     0.10000000E+002                7
 RTBSE| Simulation step         Convergence     Electron number  ETRS Iterations
 RTBSE|            5030     0.21639460E-007     0.10000000E+002                7
 RTBSE| Simulation step         Convergence     Electron number  ETRS Iterations
 RTBSE|            5031     0.22818200E-007     0.10000000E+002                7
 RTBSE| Simulation step         Convergence     Electron number  ETRS Iterations
 RTBSE|            5032     0.25481919E-007     0.10000000E+002                7
 RTBSE| Simulation step         Convergence     Electron number  ETRS Iterations
 RTBSE|            5033     0.29234923E-007     0.10000000E+002                7
 RTBSE| Simulation step         Convergence     Electron number  ETRS Iterations
 RTBSE|            5034     0.33400169E-007     0.10000000E+002                7
 RTBSE| Simulation step         Convergence     Electron number  ETRS Iterations
 RTBSE|            5035     0.37124760E-007     0.10000000E+002                7
 RTBSE| Simulation step         Convergence     Electron number  ETRS Iterations
 RTBSE|            5036     0.39568419E-007     0.10000000E+002                7
 RTBSE| Simulation step         Convergence     Electron number  ETRS Iterations
 RTBSE|            5037     0.40110270E-007     0.10000000E+002                7
 RTBSE| Simulation step         Convergence     Electron number  ETRS Iterations
 RTBSE|            5038     0.38442978E-007     0.10000000E+002                7
 RTBSE| Simulation step         Convergence     Electron number  ETRS Iterations
 RTBSE|            5039     0.34638446E-007     0.10000000E+002                7
 RTBSE| Simulation step         Convergence     Electron number  ETRS Iterations
 RTBSE|            5040     0.29450007E-007     0.10000000E+002                7
 RTBSE| Simulation step         Convergence     Electron number  ETRS Iterations
 RTBSE|            5041     0.23140958E-007     0.10000000E+002                7
 RTBSE| Simulation step         Convergence     Electron number  ETRS Iterations
 RTBSE|            5042     0.18858056E-007     0.10000000E+002                7
 RTBSE| Simulation step         Convergence     Electron number  ETRS Iterations
 RTBSE|            5043     0.99254137E-007     0.10000000E+002                6
 RTBSE| Simulation step         Convergence     Electron number  ETRS Iterations
 RTBSE|            5044     0.58874247E-007     0.10000000E+002                6
 RTBSE| Simulation step         Convergence     Electron number  ETRS Iterations
 RTBSE|            5045     0.52182552E-007     0.10000000E+002                6
 RTBSE| Simulation step         Convergence     Electron number  ETRS Iterations
 RTBSE|            5046     0.77418241E-007     0.10000000E+002                6
 RTBSE| Simulation step         Convergence     Electron number  ETRS Iterations
 RTBSE|            5047     0.96259696E-007     0.10000000E+002                6
 RTBSE| Simulation step         Convergence     Electron number  ETRS Iterations
 RTBSE|            5048     0.16665980E-007     0.10000000E+002                7
 RTBSE| Simulation step         Convergence     Electron number  ETRS Iterations
 RTBSE|            5049     0.17334778E-007     0.10000000E+002                7
 RTBSE| Simulation step         Convergence     Electron number  ETRS Iterations
 RTBSE|            5050     0.16603353E-007     0.10000000E+002                7
 RTBSE| Simulation step         Convergence     Electron number  ETRS Iterations
 RTBSE|            5051     0.87822248E-007     0.10000000E+002                6
 RTBSE| Simulation step         Convergence     Electron number  ETRS Iterations
 RTBSE|            5052     0.72555752E-007     0.10000000E+002                6
 RTBSE| Simulation step         Convergence     Electron number  ETRS Iterations
 RTBSE|            5053     0.57739166E-007     0.10000000E+002                6
 RTBSE| Simulation step         Convergence     Electron number  ETRS Iterations
 RTBSE|            5054     0.46293990E-007     0.10000000E+002                6
 RTBSE| Simulation step         Convergence     Electron number  ETRS Iterations
 RTBSE|            5055     0.40413607E-007     0.10000000E+002                6
 RTBSE| Simulation step         Convergence     Electron number  ETRS Iterations
 RTBSE|            5056     0.41367592E-007     0.10000000E+002                6
 RTBSE| Simulation step         Convergence     Electron number  ETRS Iterations
 RTBSE|            5057     0.49168310E-007     0.10000000E+002                6
 RTBSE| Simulation step         Convergence     Electron number  ETRS Iterations
 RTBSE|            5058     0.62967368E-007     0.10000000E+002                6
 RTBSE| Simulation step         Convergence     Electron number  ETRS Iterations
 RTBSE|            5059     0.81070749E-007     0.10000000E+002                6
 RTBSE| Simulation step         Convergence     Electron number  ETRS Iterations
 RTBSE|            5060     0.17206109E-007     0.10000000E+002                7
 RTBSE| Simulation step         Convergence     Electron number  ETRS Iterations
 RTBSE|            5061     0.20818507E-007     0.10000000E+002                7
 RTBSE| Simulation step         Convergence     Electron number  ETRS Iterations
 RTBSE|            5062     0.24000567E-007     0.10000000E+002                7
 RTBSE| Simulation step         Convergence     Electron number  ETRS Iterations
 RTBSE|            5063     0.26249284E-007     0.10000000E+002                7
 RTBSE| Simulation step         Convergence     Electron number  ETRS Iterations
 RTBSE|            5064     0.27081488E-007     0.10000000E+002                7
 RTBSE| Simulation step         Convergence     Electron number  ETRS Iterations
 RTBSE|            5065     0.26066344E-007     0.10000000E+002                7
 RTBSE| Simulation step         Convergence     Electron number  ETRS Iterations
 RTBSE|            5066     0.22915230E-007     0.10000000E+002                7
 RTBSE| Simulation step         Convergence     Electron number  ETRS Iterations
 RTBSE|            5067     0.19763258E-007     0.10000000E+002                7
 RTBSE| Simulation step         Convergence     Electron number  ETRS Iterations
 RTBSE|            5068     0.15736068E-007     0.10000000E+002                7
 RTBSE| Simulation step         Convergence     Electron number  ETRS Iterations
 RTBSE|            5069     0.76257595E-007     0.10000000E+002                6
 RTBSE| Simulation step         Convergence     Electron number  ETRS Iterations
 RTBSE|            5070     0.62817136E-007     0.10000000E+002                6
 RTBSE| Simulation step         Convergence     Electron number  ETRS Iterations
 RTBSE|            5071     0.95996249E-007     0.10000000E+002                6
 RTBSE| Simulation step         Convergence     Electron number  ETRS Iterations
 RTBSE|            5072     0.22931040E-007     0.10000000E+002                7
 RTBSE| Simulation step         Convergence     Electron number  ETRS Iterations
 RTBSE|            5073     0.27919035E-007     0.10000000E+002                7
 RTBSE| Simulation step         Convergence     Electron number  ETRS Iterations
 RTBSE|            5074     0.30662059E-007     0.10000000E+002                7
 RTBSE| Simulation step         Convergence     Electron number  ETRS Iterations
 RTBSE|            5075     0.31231387E-007     0.10000000E+002                7
 RTBSE| Simulation step         Convergence     Electron number  ETRS Iterations
 RTBSE|            5076     0.30053090E-007     0.10000000E+002                7
 RTBSE| Simulation step         Convergence     Electron number  ETRS Iterations
 RTBSE|            5077     0.27761705E-007     0.10000000E+002                7
 RTBSE| Simulation step         Convergence     Electron number  ETRS Iterations
 RTBSE|            5078     0.25097385E-007     0.10000000E+002                7
 RTBSE| Simulation step         Convergence     Electron number  ETRS Iterations
 RTBSE|            5079     0.22740455E-007     0.10000000E+002                7
 RTBSE| Simulation step         Convergence     Electron number  ETRS Iterations
 RTBSE|            5080     0.21275687E-007     0.10000000E+002                7
 RTBSE| Simulation step         Convergence     Electron number  ETRS Iterations
 RTBSE|            5081     0.21109393E-007     0.10000000E+002                7
 RTBSE| Simulation step         Convergence     Electron number  ETRS Iterations
 RTBSE|            5082     0.22416267E-007     0.10000000E+002                7
 RTBSE| Simulation step         Convergence     Electron number  ETRS Iterations
 RTBSE|            5083     0.25146674E-007     0.10000000E+002                7
 RTBSE| Simulation step         Convergence     Electron number  ETRS Iterations
 RTBSE|            5084     0.28972600E-007     0.10000000E+002                7
 RTBSE| Simulation step         Convergence     Electron number  ETRS Iterations
 RTBSE|            5085     0.33310099E-007     0.10000000E+002                7
 RTBSE| Simulation step         Convergence     Electron number  ETRS Iterations
 RTBSE|            5086     0.37349792E-007     0.10000000E+002                7
 RTBSE| Simulation step         Convergence     Electron number  ETRS Iterations
 RTBSE|            5087     0.40325714E-007     0.10000000E+002                7
 RTBSE| Simulation step         Convergence     Electron number  ETRS Iterations
 RTBSE|            5088     0.41520078E-007     0.10000000E+002                7
 RTBSE| Simulation step         Convergence     Electron number  ETRS Iterations
 RTBSE|            5089     0.40599628E-007     0.10000000E+002                7
 RTBSE| Simulation step         Convergence     Electron number  ETRS Iterations
 RTBSE|            5090     0.37481796E-007     0.10000000E+002                7
 RTBSE| Simulation step         Convergence     Electron number  ETRS Iterations
 RTBSE|            5091     0.32432064E-007     0.10000000E+002                7
 RTBSE| Simulation step         Convergence     Electron number  ETRS Iterations
 RTBSE|            5092     0.26414032E-007     0.10000000E+002                7
 RTBSE| Simulation step         Convergence     Electron number  ETRS Iterations
 RTBSE|            5093     0.20973969E-007     0.10000000E+002                7
 RTBSE| Simulation step         Convergence     Electron number  ETRS Iterations
 RTBSE|            5094     0.16230971E-007     0.10000000E+002                7
 RTBSE| Simulation step         Convergence     Electron number  ETRS Iterations
 RTBSE|            5095     0.77242449E-007     0.10000000E+002                6
 RTBSE| Simulation step         Convergence     Electron number  ETRS Iterations
 RTBSE|            5096     0.39391771E-007     0.10000000E+002                6
 RTBSE| Simulation step         Convergence     Electron number  ETRS Iterations
 RTBSE|            5097     0.61561371E-007     0.10000000E+002                6
 RTBSE| Simulation step         Convergence     Electron number  ETRS Iterations
 RTBSE|            5098     0.81751845E-007     0.10000000E+002                6
 RTBSE| Simulation step         Convergence     Electron number  ETRS Iterations
 RTBSE|            5099     0.93472503E-007     0.10000000E+002                6
 RTBSE| Simulation step         Convergence     Electron number  ETRS Iterations
 RTBSE|            5100     0.96036506E-007     0.10000000E+002                6
 RTBSE| Simulation step         Convergence     Electron number  ETRS Iterations
 RTBSE|            5101     0.90433657E-007     0.10000000E+002                6
 RTBSE| Simulation step         Convergence     Electron number  ETRS Iterations
 RTBSE|            5102     0.78761026E-007     0.10000000E+002                6
 RTBSE| Simulation step         Convergence     Electron number  ETRS Iterations
 RTBSE|            5103     0.64010557E-007     0.10000000E+002                6
 RTBSE| Simulation step         Convergence     Electron number  ETRS Iterations
 RTBSE|            5104     0.49459877E-007     0.10000000E+002                6
 RTBSE| Simulation step         Convergence     Electron number  ETRS Iterations
 RTBSE|            5105     0.38332487E-007     0.10000000E+002                6
 RTBSE| Simulation step         Convergence     Electron number  ETRS Iterations
 RTBSE|            5106     0.33141682E-007     0.10000000E+002                6
 RTBSE| Simulation step         Convergence     Electron number  ETRS Iterations
 RTBSE|            5107     0.35175426E-007     0.10000000E+002                6
 RTBSE| Simulation step         Convergence     Electron number  ETRS Iterations
 RTBSE|            5108     0.44471564E-007     0.10000000E+002                6
 RTBSE| Simulation step         Convergence     Electron number  ETRS Iterations
 RTBSE|            5109     0.60090884E-007     0.10000000E+002                6
 RTBSE| Simulation step         Convergence     Electron number  ETRS Iterations
 RTBSE|            5110     0.80383786E-007     0.10000000E+002                6
 RTBSE| Simulation step         Convergence     Electron number  ETRS Iterations
 RTBSE|            5111     0.17224014E-007     0.10000000E+002                7
 RTBSE| Simulation step         Convergence     Electron number  ETRS Iterations
 RTBSE|            5112     0.21253980E-007     0.10000000E+002                7
 RTBSE| Simulation step         Convergence     Electron number  ETRS Iterations
 RTBSE|            5113     0.24839946E-007     0.10000000E+002                7
 RTBSE| Simulation step         Convergence     Electron number  ETRS Iterations
 RTBSE|            5114     0.27487690E-007     0.10000000E+002                7
 RTBSE| Simulation step         Convergence     Electron number  ETRS Iterations
 RTBSE|            5115     0.28724411E-007     0.10000000E+002                7
 RTBSE| Simulation step         Convergence     Electron number  ETRS Iterations
 RTBSE|            5116     0.28111779E-007     0.10000000E+002                7
 RTBSE| Simulation step         Convergence     Electron number  ETRS Iterations
 RTBSE|            5117     0.25395575E-007     0.10000000E+002                7
 RTBSE| Simulation step         Convergence     Electron number  ETRS Iterations
 RTBSE|            5118     0.21532869E-007     0.10000000E+002                7
 RTBSE| Simulation step         Convergence     Electron number  ETRS Iterations
 RTBSE|            5119     0.17754015E-007     0.10000000E+002                7
 RTBSE| Simulation step         Convergence     Electron number  ETRS Iterations
 RTBSE|            5120     0.92738639E-007     0.10000000E+002                6
 RTBSE| Simulation step         Convergence     Electron number  ETRS Iterations
 RTBSE|            5121     0.50596408E-007     0.10000000E+002                6
 RTBSE| Simulation step         Convergence     Electron number  ETRS Iterations
 RTBSE|            5122     0.78922684E-007     0.10000000E+002                6
 RTBSE| Simulation step         Convergence     Electron number  ETRS Iterations
 RTBSE|            5123     0.18848662E-007     0.10000000E+002                7
 RTBSE| Simulation step         Convergence     Electron number  ETRS Iterations
 RTBSE|            5124     0.24122209E-007     0.10000000E+002                7
 RTBSE| Simulation step         Convergence     Electron number  ETRS Iterations
 RTBSE|            5125     0.27340873E-007     0.10000000E+002                7
 RTBSE| Simulation step         Convergence     Electron number  ETRS Iterations
 RTBSE|            5126     0.28474248E-007     0.10000000E+002                7
 RTBSE| Simulation step         Convergence     Electron number  ETRS Iterations
 RTBSE|            5127     0.27860688E-007     0.10000000E+002                7
 RTBSE| Simulation step         Convergence     Electron number  ETRS Iterations
 RTBSE|            5128     0.26064694E-007     0.10000000E+002                7
 RTBSE| Simulation step         Convergence     Electron number  ETRS Iterations
 RTBSE|            5129     0.23739897E-007     0.10000000E+002                7
 RTBSE| Simulation step         Convergence     Electron number  ETRS Iterations
 RTBSE|            5130     0.21556588E-007     0.10000000E+002                7
 RTBSE| Simulation step         Convergence     Electron number  ETRS Iterations
 RTBSE|            5131     0.20075848E-007     0.10000000E+002                7
 RTBSE| Simulation step         Convergence     Electron number  ETRS Iterations
 RTBSE|            5132     0.19818016E-007     0.10000000E+002                7
 RTBSE| Simulation step         Convergence     Electron number  ETRS Iterations
 RTBSE|            5133     0.21028223E-007     0.10000000E+002                7
 RTBSE| Simulation step         Convergence     Electron number  ETRS Iterations
 RTBSE|            5134     0.23772931E-007     0.10000000E+002                7
 RTBSE| Simulation step         Convergence     Electron number  ETRS Iterations
 RTBSE|            5135     0.27792449E-007     0.10000000E+002                7
 RTBSE| Simulation step         Convergence     Electron number  ETRS Iterations
 RTBSE|            5136     0.32563700E-007     0.10000000E+002                7
 RTBSE| Simulation step         Convergence     Electron number  ETRS Iterations
 RTBSE|            5137     0.37307072E-007     0.10000000E+002                7
 RTBSE| Simulation step         Convergence     Electron number  ETRS Iterations
 RTBSE|            5138     0.41152411E-007     0.10000000E+002                7
 RTBSE| Simulation step         Convergence     Electron number  ETRS Iterations
 RTBSE|            5139     0.43300635E-007     0.10000000E+002                7
 RTBSE| Simulation step         Convergence     Electron number  ETRS Iterations
 RTBSE|            5140     0.43271704E-007     0.10000000E+002                7
 RTBSE| Simulation step         Convergence     Electron number  ETRS Iterations
 RTBSE|            5141     0.40888802E-007     0.10000000E+002                7
 RTBSE| Simulation step         Convergence     Electron number  ETRS Iterations
 RTBSE|            5142     0.36325205E-007     0.10000000E+002                7
 RTBSE| Simulation step         Convergence     Electron number  ETRS Iterations
 RTBSE|            5143     0.30075645E-007     0.10000000E+002                7
 RTBSE| Simulation step         Convergence     Electron number  ETRS Iterations
 RTBSE|            5144     0.23191439E-007     0.10000000E+002                7
 RTBSE| Simulation step         Convergence     Electron number  ETRS Iterations
 RTBSE|            5145     0.18596271E-007     0.10000000E+002                7
 RTBSE| Simulation step         Convergence     Electron number  ETRS Iterations
 RTBSE|            5146     0.96607592E-007     0.10000000E+002                6
 RTBSE| Simulation step         Convergence     Electron number  ETRS Iterations
 RTBSE|            5147     0.58620644E-007     0.10000000E+002                6
 RTBSE| Simulation step         Convergence     Electron number  ETRS Iterations
 RTBSE|            5148     0.43407727E-007     0.10000000E+002                6
 RTBSE| Simulation step         Convergence     Electron number  ETRS Iterations
 RTBSE|            5149     0.62982180E-007     0.10000000E+002                6
 RTBSE| Simulation step         Convergence     Electron number  ETRS Iterations
 RTBSE|            5150     0.75879011E-007     0.10000000E+002                6
 RTBSE| Simulation step         Convergence     Electron number  ETRS Iterations
 RTBSE|            5151     0.80383273E-007     0.10000000E+002                6
 RTBSE| Simulation step         Convergence     Electron number  ETRS Iterations
 RTBSE|            5152     0.77172877E-007     0.10000000E+002                6
 RTBSE| Simulation step         Convergence     Electron number  ETRS Iterations
 RTBSE|            5153     0.68253545E-007     0.10000000E+002                6
 RTBSE| Simulation step         Convergence     Electron number  ETRS Iterations
 RTBSE|            5154     0.56498688E-007     0.10000000E+002                6
 RTBSE| Simulation step         Convergence     Electron number  ETRS Iterations
 RTBSE|            5155     0.44964553E-007     0.10000000E+002                6
 RTBSE| Simulation step         Convergence     Electron number  ETRS Iterations
 RTBSE|            5156     0.36666839E-007     0.10000000E+002                6
 RTBSE| Simulation step         Convergence     Electron number  ETRS Iterations
 RTBSE|            5157     0.33836818E-007     0.10000000E+002                6
 RTBSE| Simulation step         Convergence     Electron number  ETRS Iterations
 RTBSE|            5158     0.37579003E-007     0.10000000E+002                6
 RTBSE| Simulation step         Convergence     Electron number  ETRS Iterations
 RTBSE|            5159     0.47839306E-007     0.10000000E+002                6
 RTBSE| Simulation step         Convergence     Electron number  ETRS Iterations
 RTBSE|            5160     0.63899375E-007     0.10000000E+002                6
 RTBSE| Simulation step         Convergence     Electron number  ETRS Iterations
 RTBSE|            5161     0.84244574E-007     0.10000000E+002                6
 RTBSE| Simulation step         Convergence     Electron number  ETRS Iterations
 RTBSE|            5162     0.17690235E-007     0.10000000E+002                7
 RTBSE| Simulation step         Convergence     Electron number  ETRS Iterations
 RTBSE|            5163     0.21669665E-007     0.10000000E+002                7
 RTBSE| Simulation step         Convergence     Electron number  ETRS Iterations
 RTBSE|            5164     0.25224676E-007     0.10000000E+002                7
 RTBSE| Simulation step         Convergence     Electron number  ETRS Iterations
 RTBSE|            5165     0.27924999E-007     0.10000000E+002                7
 RTBSE| Simulation step         Convergence     Electron number  ETRS Iterations
 RTBSE|            5166     0.29322984E-007     0.10000000E+002                7
 RTBSE| Simulation step         Convergence     Electron number  ETRS Iterations
 RTBSE|            5167     0.29034858E-007     0.10000000E+002                7
 RTBSE| Simulation step         Convergence     Electron number  ETRS Iterations
 RTBSE|            5168     0.26782026E-007     0.10000000E+002                7
 RTBSE| Simulation step         Convergence     Electron number  ETRS Iterations
 RTBSE|            5169     0.22544497E-007     0.10000000E+002                7
 RTBSE| Simulation step         Convergence     Electron number  ETRS Iterations
 RTBSE|            5170     0.19165391E-007     0.10000000E+002                7
 RTBSE| Simulation step         Convergence     Electron number  ETRS Iterations
 RTBSE|            5171     0.14591865E-007     0.10000000E+002                7
 RTBSE| Simulation step         Convergence     Electron number  ETRS Iterations
 RTBSE|            5172     0.65246725E-007     0.10000000E+002                6
 RTBSE| Simulation step         Convergence     Electron number  ETRS Iterations
 RTBSE|            5173     0.64598544E-007     0.10000000E+002                6
 RTBSE| Simulation step         Convergence     Electron number  ETRS Iterations
 RTBSE|            5174     0.92319590E-007     0.10000000E+002                6
 RTBSE| Simulation step         Convergence     Electron number  ETRS Iterations
 RTBSE|            5175     0.20874278E-007     0.10000000E+002                7
 RTBSE| Simulation step         Convergence     Electron number  ETRS Iterations
 RTBSE|            5176     0.24344378E-007     0.10000000E+002                7
 RTBSE| Simulation step         Convergence     Electron number  ETRS Iterations
 RTBSE|            5177     0.25773786E-007     0.10000000E+002                7
 RTBSE| Simulation step         Convergence     Electron number  ETRS Iterations
 RTBSE|            5178     0.25368749E-007     0.10000000E+002                7
 RTBSE| Simulation step         Convergence     Electron number  ETRS Iterations
 RTBSE|            5179     0.23666038E-007     0.10000000E+002                7
 RTBSE| Simulation step         Convergence     Electron number  ETRS Iterations
 RTBSE|            5180     0.21352314E-007     0.10000000E+002                7
 RTBSE| Simulation step         Convergence     Electron number  ETRS Iterations
 RTBSE|            5181     0.19158732E-007     0.10000000E+002                7
 RTBSE| Simulation step         Convergence     Electron number  ETRS Iterations
 RTBSE|            5182     0.17754460E-007     0.10000000E+002                7
 RTBSE| Simulation step         Convergence     Electron number  ETRS Iterations
 RTBSE|            5183     0.17642745E-007     0.10000000E+002                7
 RTBSE| Simulation step         Convergence     Electron number  ETRS Iterations
 RTBSE|            5184     0.19119171E-007     0.10000000E+002                7
 RTBSE| Simulation step         Convergence     Electron number  ETRS Iterations
 RTBSE|            5185     0.22242979E-007     0.10000000E+002                7
 RTBSE| Simulation step         Convergence     Electron number  ETRS Iterations
 RTBSE|            5186     0.26758790E-007     0.10000000E+002                7
 RTBSE| Simulation step         Convergence     Electron number  ETRS Iterations
 RTBSE|            5187     0.32118636E-007     0.10000000E+002                7
 RTBSE| Simulation step         Convergence     Electron number  ETRS Iterations
 RTBSE|            5188     0.37511604E-007     0.10000000E+002                7
 RTBSE| Simulation step         Convergence     Electron number  ETRS Iterations
 RTBSE|            5189     0.42011610E-007     0.10000000E+002                7
 RTBSE| Simulation step         Convergence     Electron number  ETRS Iterations
 RTBSE|            5190     0.44819141E-007     0.10000000E+002                7
 RTBSE| Simulation step         Convergence     Electron number  ETRS Iterations
 RTBSE|            5191     0.45396736E-007     0.10000000E+002                7
 RTBSE| Simulation step         Convergence     Electron number  ETRS Iterations
 RTBSE|            5192     0.43563717E-007     0.10000000E+002                7
 RTBSE| Simulation step         Convergence     Electron number  ETRS Iterations
 RTBSE|            5193     0.39488289E-007     0.10000000E+002                7
 RTBSE| Simulation step         Convergence     Electron number  ETRS Iterations
 RTBSE|            5194     0.33683700E-007     0.10000000E+002                7
 RTBSE| Simulation step         Convergence     Electron number  ETRS Iterations
 RTBSE|            5195     0.26760856E-007     0.10000000E+002                7
 RTBSE| Simulation step         Convergence     Electron number  ETRS Iterations
 RTBSE|            5196     0.20795669E-007     0.10000000E+002                7
 RTBSE| Simulation step         Convergence     Electron number  ETRS Iterations
 RTBSE|            5197     0.16229947E-007     0.10000000E+002                7
 RTBSE| Simulation step         Convergence     Electron number  ETRS Iterations
 RTBSE|            5198     0.82472756E-007     0.10000000E+002                6
 RTBSE| Simulation step         Convergence     Electron number  ETRS Iterations
 RTBSE|            5199     0.49053698E-007     0.10000000E+002                6
 RTBSE| Simulation step         Convergence     Electron number  ETRS Iterations
 RTBSE|            5200     0.40314516E-007     0.10000000E+002                6
 RTBSE| Simulation step         Convergence     Electron number  ETRS Iterations
 RTBSE|            5201     0.54272764E-007     0.10000000E+002                6
 RTBSE| Simulation step         Convergence     Electron number  ETRS Iterations
 RTBSE|            5202     0.62296679E-007     0.10000000E+002                6
 RTBSE| Simulation step         Convergence     Electron number  ETRS Iterations
 RTBSE|            5203     0.63886490E-007     0.10000000E+002                6
 RTBSE| Simulation step         Convergence     Electron number  ETRS Iterations
 RTBSE|            5204     0.60353515E-007     0.10000000E+002                6
 RTBSE| Simulation step         Convergence     Electron number  ETRS Iterations
 RTBSE|            5205     0.53812062E-007     0.10000000E+002                6
 RTBSE| Simulation step         Convergence     Electron number  ETRS Iterations
 RTBSE|            5206     0.46716339E-007     0.10000000E+002                6
 RTBSE| Simulation step         Convergence     Electron number  ETRS Iterations
 RTBSE|            5207     0.41574223E-007     0.10000000E+002                6
 RTBSE| Simulation step         Convergence     Electron number  ETRS Iterations
 RTBSE|            5208     0.40400082E-007     0.10000000E+002                6
 RTBSE| Simulation step         Convergence     Electron number  ETRS Iterations
 RTBSE|            5209     0.44409925E-007     0.10000000E+002                6
 RTBSE| Simulation step         Convergence     Electron number  ETRS Iterations
 RTBSE|            5210     0.53860080E-007     0.10000000E+002                6
 RTBSE| Simulation step         Convergence     Electron number  ETRS Iterations
 RTBSE|            5211     0.68350934E-007     0.10000000E+002                6
 RTBSE| Simulation step         Convergence     Electron number  ETRS Iterations
 RTBSE|            5212     0.86716233E-007     0.10000000E+002                6
 RTBSE| Simulation step         Convergence     Electron number  ETRS Iterations
 RTBSE|            5213     0.17714700E-007     0.10000000E+002                7
 RTBSE| Simulation step         Convergence     Electron number  ETRS Iterations
 RTBSE|            5214     0.21385729E-007     0.10000000E+002                7
 RTBSE| Simulation step         Convergence     Electron number  ETRS Iterations
 RTBSE|            5215     0.24759132E-007     0.10000000E+002                7
 RTBSE| Simulation step         Convergence     Electron number  ETRS Iterations
 RTBSE|            5216     0.27417298E-007     0.10000000E+002                7
 RTBSE| Simulation step         Convergence     Electron number  ETRS Iterations
 RTBSE|            5217     0.28926356E-007     0.10000000E+002                7
 RTBSE| Simulation step         Convergence     Electron number  ETRS Iterations
 RTBSE|            5218     0.28907210E-007     0.10000000E+002                7
 RTBSE| Simulation step         Convergence     Electron number  ETRS Iterations
 RTBSE|            5219     0.27079137E-007     0.10000000E+002                7
 RTBSE| Simulation step         Convergence     Electron number  ETRS Iterations
 RTBSE|            5220     0.23313318E-007     0.10000000E+002                7
 RTBSE| Simulation step         Convergence     Electron number  ETRS Iterations
 RTBSE|            5221     0.19609066E-007     0.10000000E+002                7
 RTBSE| Simulation step         Convergence     Electron number  ETRS Iterations
 RTBSE|            5222     0.15398474E-007     0.10000000E+002                7
 RTBSE| Simulation step         Convergence     Electron number  ETRS Iterations
 RTBSE|            5223     0.74141617E-007     0.10000000E+002                6
 RTBSE| Simulation step         Convergence     Electron number  ETRS Iterations
 RTBSE|            5224     0.49074669E-007     0.10000000E+002                6
 RTBSE| Simulation step         Convergence     Electron number  ETRS Iterations
 RTBSE|            5225     0.74533702E-007     0.10000000E+002                6
 RTBSE| Simulation step         Convergence     Electron number  ETRS Iterations
 RTBSE|            5226     0.92514069E-007     0.10000000E+002                6
 RTBSE| Simulation step         Convergence     Electron number  ETRS Iterations
 RTBSE|            5227     0.19770011E-007     0.10000000E+002                7
 RTBSE| Simulation step         Convergence     Electron number  ETRS Iterations
 RTBSE|            5228     0.21130905E-007     0.10000000E+002                7
 RTBSE| Simulation step         Convergence     Electron number  ETRS Iterations
 RTBSE|            5229     0.20849285E-007     0.10000000E+002                7
 RTBSE| Simulation step         Convergence     Electron number  ETRS Iterations
 RTBSE|            5230     0.19459238E-007     0.10000000E+002                7
 RTBSE| Simulation step         Convergence     Electron number  ETRS Iterations
 RTBSE|            5231     0.17643888E-007     0.10000000E+002                7
 RTBSE| Simulation step         Convergence     Electron number  ETRS Iterations
 RTBSE|            5232     0.94132700E-007     0.10000000E+002                6
 RTBSE| Simulation step         Convergence     Electron number  ETRS Iterations
 RTBSE|            5233     0.92494520E-007     0.10000000E+002                6
 RTBSE| Simulation step         Convergence     Electron number  ETRS Iterations
 RTBSE|            5234     0.98062486E-007     0.10000000E+002                6
 RTBSE| Simulation step         Convergence     Electron number  ETRS Iterations
 RTBSE|            5235     0.18036282E-007     0.10000000E+002                7
 RTBSE| Simulation step         Convergence     Electron number  ETRS Iterations
 RTBSE|            5236     0.21634957E-007     0.10000000E+002                7
 RTBSE| Simulation step         Convergence     Electron number  ETRS Iterations
 RTBSE|            5237     0.26512236E-007     0.10000000E+002                7
 RTBSE| Simulation step         Convergence     Electron number  ETRS Iterations
 RTBSE|            5238     0.32129376E-007     0.10000000E+002                7
 RTBSE| Simulation step         Convergence     Electron number  ETRS Iterations
 RTBSE|            5239     0.37761344E-007     0.10000000E+002                7
 RTBSE| Simulation step         Convergence     Electron number  ETRS Iterations
 RTBSE|            5240     0.42589511E-007     0.10000000E+002                7
 RTBSE| Simulation step         Convergence     Electron number  ETRS Iterations
 RTBSE|            5241     0.45894752E-007     0.10000000E+002                7
 RTBSE| Simulation step         Convergence     Electron number  ETRS Iterations
 RTBSE|            5242     0.47126381E-007     0.10000000E+002                7
 RTBSE| Simulation step         Convergence     Electron number  ETRS Iterations
 RTBSE|            5243     0.46128293E-007     0.10000000E+002                7
 RTBSE| Simulation step         Convergence     Electron number  ETRS Iterations
 RTBSE|            5244     0.42947559E-007     0.10000000E+002                7
 RTBSE| Simulation step         Convergence     Electron number  ETRS Iterations
 RTBSE|            5245     0.37979504E-007     0.10000000E+002                7
 RTBSE| Simulation step         Convergence     Electron number  ETRS Iterations
 RTBSE|            5246     0.31760450E-007     0.10000000E+002                7
 RTBSE| Simulation step         Convergence     Electron number  ETRS Iterations
 RTBSE|            5247     0.24836914E-007     0.10000000E+002                7
 RTBSE| Simulation step         Convergence     Electron number  ETRS Iterations
 RTBSE|            5248     0.19760443E-007     0.10000000E+002                7
 RTBSE| Simulation step         Convergence     Electron number  ETRS Iterations
 RTBSE|            5249     0.15390653E-007     0.10000000E+002                7
 RTBSE| Simulation step         Convergence     Electron number  ETRS Iterations
 RTBSE|            5250     0.78807319E-007     0.10000000E+002                6
 RTBSE| Simulation step         Convergence     Electron number  ETRS Iterations
 RTBSE|            5251     0.48109991E-007     0.10000000E+002                6
 RTBSE| Simulation step         Convergence     Electron number  ETRS Iterations
 RTBSE|            5252     0.36936767E-007     0.10000000E+002                6
 RTBSE| Simulation step         Convergence     Electron number  ETRS Iterations
 RTBSE|            5253     0.48459314E-007     0.10000000E+002                6
 RTBSE| Simulation step         Convergence     Electron number  ETRS Iterations
 RTBSE|            5254     0.55235493E-007     0.10000000E+002                6
 RTBSE| Simulation step         Convergence     Electron number  ETRS Iterations
 RTBSE|            5255     0.56946787E-007     0.10000000E+002                6
 RTBSE| Simulation step         Convergence     Electron number  ETRS Iterations
 RTBSE|            5256     0.55057245E-007     0.10000000E+002                6
 RTBSE| Simulation step         Convergence     Electron number  ETRS Iterations
 RTBSE|            5257     0.51552449E-007     0.10000000E+002                6
 RTBSE| Simulation step         Convergence     Electron number  ETRS Iterations
 RTBSE|            5258     0.48612860E-007     0.10000000E+002                6
 RTBSE| Simulation step         Convergence     Electron number  ETRS Iterations
 RTBSE|            5259     0.48165198E-007     0.10000000E+002                6
 RTBSE| Simulation step         Convergence     Electron number  ETRS Iterations
 RTBSE|            5260     0.51530693E-007     0.10000000E+002                6
 RTBSE| Simulation step         Convergence     Electron number  ETRS Iterations
 RTBSE|            5261     0.59332883E-007     0.10000000E+002                6
 RTBSE| Simulation step         Convergence     Electron number  ETRS Iterations
 RTBSE|            5262     0.71489503E-007     0.10000000E+002                6
 RTBSE| Simulation step         Convergence     Electron number  ETRS Iterations
 RTBSE|            5263     0.87218961E-007     0.10000000E+002                6
 RTBSE| Simulation step         Convergence     Electron number  ETRS Iterations
 RTBSE|            5264     0.17352062E-007     0.10000000E+002                7
 RTBSE| Simulation step         Convergence     Electron number  ETRS Iterations
 RTBSE|            5265     0.20583535E-007     0.10000000E+002                7
 RTBSE| Simulation step         Convergence     Electron number  ETRS Iterations
 RTBSE|            5266     0.23577268E-007     0.10000000E+002                7
 RTBSE| Simulation step         Convergence     Electron number  ETRS Iterations
 RTBSE|            5267     0.25984724E-007     0.10000000E+002                7
 RTBSE| Simulation step         Convergence     Electron number  ETRS Iterations
 RTBSE|            5268     0.27397418E-007     0.10000000E+002                7
 RTBSE| Simulation step         Convergence     Electron number  ETRS Iterations
 RTBSE|            5269     0.27513297E-007     0.10000000E+002                7
 RTBSE| Simulation step         Convergence     Electron number  ETRS Iterations
 RTBSE|            5270     0.26082564E-007     0.10000000E+002                7
 RTBSE| Simulation step         Convergence     Electron number  ETRS Iterations
 RTBSE|            5271     0.22987716E-007     0.10000000E+002                7
 RTBSE| Simulation step         Convergence     Electron number  ETRS Iterations
 RTBSE|            5272     0.19079677E-007     0.10000000E+002                7
 RTBSE| Simulation step         Convergence     Electron number  ETRS Iterations
 RTBSE|            5273     0.15556966E-007     0.10000000E+002                7
 RTBSE| Simulation step         Convergence     Electron number  ETRS Iterations
 RTBSE|            5274     0.81670697E-007     0.10000000E+002                6
 RTBSE| Simulation step         Convergence     Electron number  ETRS Iterations
 RTBSE|            5275     0.50724478E-007     0.10000000E+002                6
 RTBSE| Simulation step         Convergence     Electron number  ETRS Iterations
 RTBSE|            5276     0.49370121E-007     0.10000000E+002                6
 RTBSE| Simulation step         Convergence     Electron number  ETRS Iterations
 RTBSE|            5277     0.65381297E-007     0.10000000E+002                6
 RTBSE| Simulation step         Convergence     Electron number  ETRS Iterations
 RTBSE|            5278     0.75643742E-007     0.10000000E+002                6
 RTBSE| Simulation step         Convergence     Electron number  ETRS Iterations
 RTBSE|            5279     0.83671439E-007     0.10000000E+002                6
 RTBSE| Simulation step         Convergence     Electron number  ETRS Iterations
 RTBSE|            5280     0.86258537E-007     0.10000000E+002                6
 RTBSE| Simulation step         Convergence     Electron number  ETRS Iterations
 RTBSE|            5281     0.85070186E-007     0.10000000E+002                6
 RTBSE| Simulation step         Convergence     Electron number  ETRS Iterations
 RTBSE|            5282     0.82626096E-007     0.10000000E+002                6
 RTBSE| Simulation step         Convergence     Electron number  ETRS Iterations
 RTBSE|            5283     0.81793463E-007     0.10000000E+002                6
 RTBSE| Simulation step         Convergence     Electron number  ETRS Iterations
 RTBSE|            5284     0.85227082E-007     0.10000000E+002                6
 RTBSE| Simulation step         Convergence     Electron number  ETRS Iterations
 RTBSE|            5285     0.94654347E-007     0.10000000E+002                6
 RTBSE| Simulation step         Convergence     Electron number  ETRS Iterations
 RTBSE|            5286     0.17595891E-007     0.10000000E+002                7
 RTBSE| Simulation step         Convergence     Electron number  ETRS Iterations
 RTBSE|            5287     0.21478773E-007     0.10000000E+002                7
 RTBSE| Simulation step         Convergence     Electron number  ETRS Iterations
 RTBSE|            5288     0.26483974E-007     0.10000000E+002                7
 RTBSE| Simulation step         Convergence     Electron number  ETRS Iterations
 RTBSE|            5289     0.32227444E-007     0.10000000E+002                7
 RTBSE| Simulation step         Convergence     Electron number  ETRS Iterations
 RTBSE|            5290     0.38123597E-007     0.10000000E+002                7
 RTBSE| Simulation step         Convergence     Electron number  ETRS Iterations
 RTBSE|            5291     0.43439054E-007     0.10000000E+002                7
 RTBSE| Simulation step         Convergence     Electron number  ETRS Iterations
 RTBSE|            5292     0.47435232E-007     0.10000000E+002                7
 RTBSE| Simulation step         Convergence     Electron number  ETRS Iterations
 RTBSE|            5293     0.49534818E-007     0.10000000E+002                7
 RTBSE| Simulation step         Convergence     Electron number  ETRS Iterations
 RTBSE|            5294     0.49433411E-007     0.10000000E+002                7
 RTBSE| Simulation step         Convergence     Electron number  ETRS Iterations
 RTBSE|            5295     0.47093056E-007     0.10000000E+002                7
 RTBSE| Simulation step         Convergence     Electron number  ETRS Iterations
 RTBSE|            5296     0.42776762E-007     0.10000000E+002                7
 RTBSE| Simulation step         Convergence     Electron number  ETRS Iterations
 RTBSE|            5297     0.36908272E-007     0.10000000E+002                7
 RTBSE| Simulation step         Convergence     Electron number  ETRS Iterations
 RTBSE|            5298     0.30027718E-007     0.10000000E+002                7
 RTBSE| Simulation step         Convergence     Electron number  ETRS Iterations
 RTBSE|            5299     0.22925756E-007     0.10000000E+002                7
 RTBSE| Simulation step         Convergence     Electron number  ETRS Iterations
 RTBSE|            5300     0.18570140E-007     0.10000000E+002                7
 RTBSE| Simulation step         Convergence     Electron number  ETRS Iterations
 RTBSE|            5301     0.14044728E-007     0.10000000E+002                7
 RTBSE| Simulation step         Convergence     Electron number  ETRS Iterations
 RTBSE|            5302     0.69204600E-007     0.10000000E+002                6
 RTBSE| Simulation step         Convergence     Electron number  ETRS Iterations
 RTBSE|            5303     0.40250050E-007     0.10000000E+002                6
 RTBSE| Simulation step         Convergence     Electron number  ETRS Iterations
 RTBSE|            5304     0.38852107E-007     0.10000000E+002                6
 RTBSE| Simulation step         Convergence     Electron number  ETRS Iterations
 RTBSE|            5305     0.48362460E-007     0.10000000E+002                6
 RTBSE| Simulation step         Convergence     Electron number  ETRS Iterations
 RTBSE|            5306     0.53479091E-007     0.10000000E+002                6
 RTBSE| Simulation step         Convergence     Electron number  ETRS Iterations
 RTBSE|            5307     0.54763692E-007     0.10000000E+002                6
 RTBSE| Simulation step         Convergence     Electron number  ETRS Iterations
 RTBSE|            5308     0.53735073E-007     0.10000000E+002                6
 RTBSE| Simulation step         Convergence     Electron number  ETRS Iterations
 RTBSE|            5309     0.52273508E-007     0.10000000E+002                6
 RTBSE| Simulation step         Convergence     Electron number  ETRS Iterations
 RTBSE|            5310     0.52134603E-007     0.10000000E+002                6
 RTBSE| Simulation step         Convergence     Electron number  ETRS Iterations
 RTBSE|            5311     0.54660286E-007     0.10000000E+002                6
 RTBSE| Simulation step         Convergence     Electron number  ETRS Iterations
 RTBSE|            5312     0.60623934E-007     0.10000000E+002                6
 RTBSE| Simulation step         Convergence     Electron number  ETRS Iterations
 RTBSE|            5313     0.70130077E-007     0.10000000E+002                6
 RTBSE| Simulation step         Convergence     Electron number  ETRS Iterations
 RTBSE|            5314     0.82749932E-007     0.10000000E+002                6
 RTBSE| Simulation step         Convergence     Electron number  ETRS Iterations
 RTBSE|            5315     0.97489326E-007     0.10000000E+002                6
 RTBSE| Simulation step         Convergence     Electron number  ETRS Iterations
 RTBSE|            5316     0.18777207E-007     0.10000000E+002                7
 RTBSE| Simulation step         Convergence     Electron number  ETRS Iterations
 RTBSE|            5317     0.21388737E-007     0.10000000E+002                7
 RTBSE| Simulation step         Convergence     Electron number  ETRS Iterations
 RTBSE|            5318     0.23583278E-007     0.10000000E+002                7
 RTBSE| Simulation step         Convergence     Electron number  ETRS Iterations
 RTBSE|            5319     0.25071584E-007     0.10000000E+002                7
 RTBSE| Simulation step         Convergence     Electron number  ETRS Iterations
 RTBSE|            5320     0.25543724E-007     0.10000000E+002                7
 RTBSE| Simulation step         Convergence     Electron number  ETRS Iterations
 RTBSE|            5321     0.24823758E-007     0.10000000E+002                7
 RTBSE| Simulation step         Convergence     Electron number  ETRS Iterations
 RTBSE|            5322     0.22804361E-007     0.10000000E+002                7
 RTBSE| Simulation step         Convergence     Electron number  ETRS Iterations
 RTBSE|            5323     0.19553752E-007     0.10000000E+002                7
 RTBSE| Simulation step         Convergence     Electron number  ETRS Iterations
 RTBSE|            5324     0.16383366E-007     0.10000000E+002                7
 RTBSE| Simulation step         Convergence     Electron number  ETRS Iterations
 RTBSE|            5325     0.94813794E-007     0.10000000E+002                6
 RTBSE| Simulation step         Convergence     Electron number  ETRS Iterations
 RTBSE|            5326     0.71955912E-007     0.10000000E+002                6
 RTBSE| Simulation step         Convergence     Electron number  ETRS Iterations
 RTBSE|            5327     0.48946870E-007     0.10000000E+002                6
 RTBSE| Simulation step         Convergence     Electron number  ETRS Iterations
 RTBSE|            5328     0.36071640E-007     0.10000000E+002                6
 RTBSE| Simulation step         Convergence     Electron number  ETRS Iterations
 RTBSE|            5329     0.46412018E-007     0.10000000E+002                6
 RTBSE| Simulation step         Convergence     Electron number  ETRS Iterations
 RTBSE|            5330     0.54920769E-007     0.10000000E+002                6
 RTBSE| Simulation step         Convergence     Electron number  ETRS Iterations
 RTBSE|            5331     0.60693660E-007     0.10000000E+002                6
 RTBSE| Simulation step         Convergence     Electron number  ETRS Iterations
 RTBSE|            5332     0.63862380E-007     0.10000000E+002                6
 RTBSE| Simulation step         Convergence     Electron number  ETRS Iterations
 RTBSE|            5333     0.66176788E-007     0.10000000E+002                6
 RTBSE| Simulation step         Convergence     Electron number  ETRS Iterations
 RTBSE|            5334     0.69768166E-007     0.10000000E+002                6
 RTBSE| Simulation step         Convergence     Electron number  ETRS Iterations
 RTBSE|            5335     0.76846845E-007     0.10000000E+002                6
 RTBSE| Simulation step         Convergence     Electron number  ETRS Iterations
 RTBSE|            5336     0.89184927E-007     0.10000000E+002                6
 RTBSE| Simulation step         Convergence     Electron number  ETRS Iterations
 RTBSE|            5337     0.16764543E-007     0.10000000E+002                7
 RTBSE| Simulation step         Convergence     Electron number  ETRS Iterations
 RTBSE|            5338     0.21061162E-007     0.10000000E+002                7
 RTBSE| Simulation step         Convergence     Electron number  ETRS Iterations
 RTBSE|            5339     0.26506988E-007     0.10000000E+002                7
 RTBSE| Simulation step         Convergence     Electron number  ETRS Iterations
 RTBSE|            5340     0.32748589E-007     0.10000000E+002                7
 RTBSE| Simulation step         Convergence     Electron number  ETRS Iterations
 RTBSE|            5341     0.39196714E-007     0.10000000E+002                7
 RTBSE| Simulation step         Convergence     Electron number  ETRS Iterations
 RTBSE|            5342     0.45121435E-007     0.10000000E+002                7
 RTBSE| Simulation step         Convergence     Electron number  ETRS Iterations
 RTBSE|            5343     0.49771568E-007     0.10000000E+002                7
 RTBSE| Simulation step         Convergence     Electron number  ETRS Iterations
 RTBSE|            5344     0.52502080E-007     0.10000000E+002                7
 RTBSE| Simulation step         Convergence     Electron number  ETRS Iterations
 RTBSE|            5345     0.52916224E-007     0.10000000E+002                7
 RTBSE| Simulation step         Convergence     Electron number  ETRS Iterations
 RTBSE|            5346     0.50939579E-007     0.10000000E+002                7
 RTBSE| Simulation step         Convergence     Electron number  ETRS Iterations
 RTBSE|            5347     0.46797682E-007     0.10000000E+002                7
 RTBSE| Simulation step         Convergence     Electron number  ETRS Iterations
 RTBSE|            5348     0.40974748E-007     0.10000000E+002                7
 RTBSE| Simulation step         Convergence     Electron number  ETRS Iterations
 RTBSE|            5349     0.34057675E-007     0.10000000E+002                7
 RTBSE| Simulation step         Convergence     Electron number  ETRS Iterations
 RTBSE|            5350     0.26649320E-007     0.10000000E+002                7
 RTBSE| Simulation step         Convergence     Electron number  ETRS Iterations
 RTBSE|            5351     0.20841552E-007     0.10000000E+002                7
 RTBSE| Simulation step         Convergence     Electron number  ETRS Iterations
 RTBSE|            5352     0.16374493E-007     0.10000000E+002                7
 RTBSE| Simulation step         Convergence     Electron number  ETRS Iterations
 RTBSE|            5353     0.87050351E-007     0.10000000E+002                6
 RTBSE| Simulation step         Convergence     Electron number  ETRS Iterations
 RTBSE|            5354     0.57225713E-007     0.10000000E+002                6
 RTBSE| Simulation step         Convergence     Electron number  ETRS Iterations
 RTBSE|            5355     0.32217622E-007     0.10000000E+002                6
 RTBSE| Simulation step         Convergence     Electron number  ETRS Iterations
 RTBSE|            5356     0.37739886E-007     0.10000000E+002                6
 RTBSE| Simulation step         Convergence     Electron number  ETRS Iterations
 RTBSE|            5357     0.44888754E-007     0.10000000E+002                6
 RTBSE| Simulation step         Convergence     Electron number  ETRS Iterations
 RTBSE|            5358     0.48566840E-007     0.10000000E+002                6
 RTBSE| Simulation step         Convergence     Electron number  ETRS Iterations
 RTBSE|            5359     0.49607600E-007     0.10000000E+002                6
 RTBSE| Simulation step         Convergence     Electron number  ETRS Iterations
 RTBSE|            5360     0.49531622E-007     0.10000000E+002                6
 RTBSE| Simulation step         Convergence     Electron number  ETRS Iterations
 RTBSE|            5361     0.49852528E-007     0.10000000E+002                6
 RTBSE| Simulation step         Convergence     Electron number  ETRS Iterations
 RTBSE|            5362     0.51879478E-007     0.10000000E+002                6
 RTBSE| Simulation step         Convergence     Electron number  ETRS Iterations
 RTBSE|            5363     0.56550747E-007     0.10000000E+002                6
 RTBSE| Simulation step         Convergence     Electron number  ETRS Iterations
 RTBSE|            5364     0.64314256E-007     0.10000000E+002                6
 RTBSE| Simulation step         Convergence     Electron number  ETRS Iterations
 RTBSE|            5365     0.75129927E-007     0.10000000E+002                6
 RTBSE| Simulation step         Convergence     Electron number  ETRS Iterations
 RTBSE|            5366     0.88357537E-007     0.10000000E+002                6
 RTBSE| Simulation step         Convergence     Electron number  ETRS Iterations
 RTBSE|            5367     0.16903852E-007     0.10000000E+002                7
 RTBSE| Simulation step         Convergence     Electron number  ETRS Iterations
 RTBSE|            5368     0.19441492E-007     0.10000000E+002                7
 RTBSE| Simulation step         Convergence     Electron number  ETRS Iterations
 RTBSE|            5369     0.21757530E-007     0.10000000E+002                7
 RTBSE| Simulation step         Convergence     Electron number  ETRS Iterations
 RTBSE|            5370     0.23582205E-007     0.10000000E+002                7
 RTBSE| Simulation step         Convergence     Electron number  ETRS Iterations
 RTBSE|            5371     0.24676537E-007     0.10000000E+002                7
 RTBSE| Simulation step         Convergence     Electron number  ETRS Iterations
 RTBSE|            5372     0.24792724E-007     0.10000000E+002                7
 RTBSE| Simulation step         Convergence     Electron number  ETRS Iterations
 RTBSE|            5373     0.23829470E-007     0.10000000E+002                7
 RTBSE| Simulation step         Convergence     Electron number  ETRS Iterations
 RTBSE|            5374     0.21723634E-007     0.10000000E+002                7
 RTBSE| Simulation step         Convergence     Electron number  ETRS Iterations
 RTBSE|            5375     0.18645488E-007     0.10000000E+002                7

 -------------------------------------------------------------------------------
 -                                                                             -
 -                                DBCSR STATISTICS                             -
 -                                                                             -
 -------------------------------------------------------------------------------
 COUNTER                                    TOTAL       BLAS       SMM       ACC
 flops    13 x    26 x    13                35152     100.0%      0.0%      0.0%     
 flops    13 x    13 x    26               158184     100.0%      0.0%      0.0%     
 flops    67 x    64 x    67               574592     100.0%      0.0%      0.0%     
 flops    67 x    64 x    78               668928     100.0%      0.0%      0.0%     
 flops    78 x    64 x    67               668928     100.0%      0.0%      0.0%     
 flops    67 x    81 x    67               727218     100.0%      0.0%      0.0%     
 flops    78 x    64 x    78               778752     100.0%      0.0%      0.0%     
 flops    78 x    81 x    67               846612     100.0%      0.0%      0.0%     
 flops    67 x    81 x    78               846612     100.0%      0.0%      0.0%     
 flops    78 x    81 x    78               985608     100.0%      0.0%      0.0%     
 flops inhomo. stacks                           0       0.0%      0.0%      0.0%
 flops total                         6.290586E+06     100.0%      0.0%      0.0%
 flops max/rank                      1.902524E+06     100.0%      0.0%      0.0%
 matmuls inhomo. stacks                         0       0.0%      0.0%      0.0%
 matmuls total                                 30     100.0%      0.0%      0.0%
 number of processed stacks                    30     100.0%      0.0%      0.0%
 average stack size                                     1.0       0.0       0.0
 marketing flops                     6.144570E+06
 -------------------------------------------------------------------------------
 # multiplications                              8
 max memory usage/rank             462.348288E+06
 # max total images/rank                        1
 # max 3D layers                                1
 # MPI messages exchanged                      64
 MPI messages size (bytes):
  total size                       412.112000E+03
  min size                           0.000000E+00
  max size                          50.544000E+03
  average size                       6.439250E+03
 MPI breakdown and total messages size (bytes):
             size <=      128                  26                        0
       128 < size <=     8192                  30                    75712
      8192 < size <=    32768                   0                        0
     32768 < size <=   131072                   8                   336400
    131072 < size <=  4194304                   0                        0
   4194304 < size <= 16777216                   0                        0
  16777216 < size                               0                        0
 -------------------------------------------------------------------------------
 -                                                                             -
 -                      DBCSR MESSAGE PASSING PERFORMANCE                      -
 -                                                                             -
 -------------------------------------------------------------------------------
 ROUTINE             CALLS      AVE VOLUME [Bytes]
 MP_Bcast               11                     12.
 MP_Allreduce           87                     16.
 MP_Alltoall       3085088                    622.
 MP_ISend               64                   2166.
 MP_IRecv               64                   1438.
 -------------------------------------------------------------------------------

 -------------------------------------------------------------------------------
 -                                                                             -
 -                                DBM STATISTICS                               -
 -                                                                             -
 -------------------------------------------------------------------------------
    M  x    N  x    K                                          COUNT     PERCENT
    ?  x    ?  x    ?                                        5841360      50.00%
   ??  x  ???  x   ??                                        1947120      16.67%
   ??  x   ??  x  ???                                         973560       8.33%
   ??  x   ??  x >999                                         973560       8.33%
  ???  x   ??  x   ??                                         973560       8.33%
 >999  x   ??  x   ??                                         973560       8.33%
 -------------------------------------------------------------------------------
 Memory consumption                            Number of allocations  Size [MiB]
 Host                                                             15           1
 -------------------------------------------------------------------------------

 -------------------------------------------------------------------------------
 -                                                                             -
 -                                GRID STATISTICS                              -
 -                                                                             -
 -------------------------------------------------------------------------------
 LP    KERNEL             BACKEND                              COUNT     PERCENT
 4     collocate ortho    CPU                                    648      49.77%
 4     integrate ortho    CPU                                    648      49.77%
 0     collocate general  CPU                                      4       0.31%
 0     integrate general  CPU                                      2       0.15%
 -------------------------------------------------------------------------------

 MEMORY| Estimated peak process memory [MiB]                                 442

 -------------------------------------------------------------------------------
 ----                             MULTIGRID INFO                            ----
 -------------------------------------------------------------------------------
 count for grid        1:          28164          cutoff [a.u.]          200.00
 count for grid        2:          16366          cutoff [a.u.]           66.67
 count for grid        3:          13240          cutoff [a.u.]           22.22
 count for grid        4:           1554          cutoff [a.u.]            7.41
 total gridlevel count  :          59324

 -------------------------------------------------------------------------------
 -                                                                             -
 -                         MESSAGE PASSING PERFORMANCE                         -
 -                                                                             -
 -------------------------------------------------------------------------------

 ROUTINE             CALLS      AVE VOLUME [Bytes]
 MP_Group          4746141
 MP_Bcast          2434360                    440.
 MP_Allreduce      5352295                     25.
 MP_Sync           3650868
 MP_Alltoall       2677427                   1112.
 MP_SendRecv            78                1454279.
 MP_ISendRecv           75                1352451.
 MP_Wait           4624500
 MP_comm_split     2433920
 MP_ISend          5841381                  25340.
 MP_IRecv          5841381                  25197.
 -------------------------------------------------------------------------------


 -------------------------------------------------------------------------------
 -                                                                             -
 -                           R E F E R E N C E S                               -
 -                                                                             -
 -------------------------------------------------------------------------------
 
 CP2K version 2025.1 (Development Version), the CP2K developers group (2025).
 CP2K is freely available from https://www.cp2k.org/ .
 
 M. Graml, K. Zollner, D. Hernangómez-Pérez, P. E. Faria Junior, J. Wilhelm.
 J. Chem. Theory Comput. 20, 2202-2208 (2024).
 Low-scaling GW algorithm applied to twisted transition-metal dichalcogenide 
 heterobilayers.
 https://doi.org/10.1021/acs.jctc.3c01230

 T. D. Kuehne, M. Iannuzzi, M. Del Ben, V. V. Rybkin, P. Seewald, F. Stein, T. 
 Laino, R. Z. Khaliullin, O. Schuett, F. Schiffmann, D. Golze, J. Wilhelm, S. 
 Chulkov, M. H. Bani-Hashemian, V. Weber, U. Borstnik, M. Taillefumier, A. S. 
 Jakobovits, A. Lazzaro, H. Pabst, T. Mueller, R. Schade, M. Guidon, S. 
 Andermatt, N. Holmberg, G. K. Schenter, A. Hehn, A. Bussy, F. Belleflamme, G. 
 Tabacchi, A. Gloess, M. Lass, I. Bethune, C. J. Mundy, C. Plessl, M. Watkins, 
 J. VandeVondele, M. Krack, J. Hutter.
 J. Chem. Phys. 152, 194103 (2020).
 CP2K: An electronic structure and molecular dynamics software package - 
 Quickstep: Efficient and accurate electronic structure calculations.
 https://doi.org/10.1063/5.0007045

 O. Schuett, P. Messmer, J. Hutter, J. VandeVondele.
 Electronic Structure Calculations on Graphics Processing Units, 173-190 (2016).
 GPU-Accelerated Sparse Matrix-Matrix Multiplication for Linear Scaling Density 
 Functional Theory.
 https://doi.org/10.1002/9781118670712.ch8

 J. Hutter, M. Iannuzzi, F. Schiffmann, J. VandeVondele.
 WIREs Comput Mol Sci. 4, 15-25 (2014).
 CP2K: atomistic simulations of condensed matter systems.
 https://doi.org/10.1002/wcms.1159

 U. Borstnik, J. VandeVondele, V. Weber, J. Hutter.
 Parallel Comput. 40, 47-58 (2014).
 Sparse matrix multiplication: The distributed block-compressed sparse row 
 library.
 https://doi.org/10.1016/j.parco.2014.03.012

 L. Genovese, T. Deutsch, S. Goedecker.
 J. Chem. Phys. 127, 054704 (2007).
 Efficient and accurate three-dimensional Poisson solver for surface problems.
 https://doi.org/10.1063/1.2754685

 J. VandeVondele, J. Hutter.
 J. Chem. Phys. 127, 114105 (2007).
 Gaussian basis sets for accurate calculations on molecular systems in gas and 
 condensed phases.
 https://doi.org/10.1063/1.2770708

 L. Genovese, T. Deutsch, A. Neelov, S. Goedecker, G. Beylkin.
 J. Chem. Phys. 125, 074105 (2006).
 Efficient solution of Poisson's equation with free boundary conditions.
 https://doi.org/10.1063/1.2335442

 J. VandeVondele, M. Krack, F. Mohamed, M. Parrinello, T. Chassaing, J. Hutter.
 Comput. Phys. Commun. 167, 103-128 (2005).
 QUICKSTEP: Fast and accurate density functional calculations using a mixed 
 Gaussian and plane waves approach.
 https://doi.org/10.1016/j.cpc.2004.12.014

 M. Krack.
 Theor. Chem. Acc. 114, 145-152 (2005).
 Pseudopotentials for H to Kr optimized for gradient-corrected 
 exchange-correlation functionals.
 https://doi.org/10.1007/s00214-005-0655-y

 M. Frigo, S. G. Johnson.
 Proc. IEEE 93, 216-231 (2005).
 The design and implementation of FFTW3.
 https://doi.org/10.1109/JPROC.2004.840301

 C. Hartwigsen, S. Goedecker, J. Hutter.
 Phys. Rev. B 58, 3641-3662 (1998).
 Relativistic separable dual-space Gaussian pseudopotentials from H to Rn.
 https://doi.org/10.1103/PhysRevB.58.3641

 G. Lippert, J. Hutter, M. Parrinello.
 Mol. Phys. 92, 477-487 (1997).
 A hybrid Gaussian and plane wave density functional scheme.
 https://doi.org/10.1080/002689797170220

 S. Goedecker, M. Teter, J. Hutter.
 Phys. Rev. B 54, 1703-1710 (1996).
 Separable dual-space Gaussian pseudopotentials.
 https://doi.org/10.1103/PhysRevB.54.1703

 J. P. Perdew, K. Burke, M. Ernzerhof.
 Phys. Rev. Lett. 77, 3865-3868 (1996).
 Generalized gradient approximation made simple.
 https://doi.org/10.1103/PhysRevLett.77.3865


 -------------------------------------------------------------------------------
 -                                                                             -
 -                                T I M I N G                                  -
 -                                                                             -
 -------------------------------------------------------------------------------
 SUBROUTINE                       CALLS  ASD         SELF TIME        TOTAL TIME
                                MAXIMUM       AVERAGE  MAXIMUM  AVERAGE  MAXIMUM
 CP2K                                 1  1.0    0.004    0.007  715.806  715.806
 run_propagation_bse                  1  2.0    0.847    2.654  715.554  715.602
 etrs_scf_loop                     5376  3.0    0.133    0.144  697.122  697.246
 update_effective_ham             40564  4.0    0.665    0.676  679.493  679.804
 get_sigma                       121695  5.0    1.159    1.200  662.027  662.102
 dbt_total                       365086  6.0    1.152    1.176  636.982  636.991
 dbt_contract                    365085  7.0    7.452    7.596  634.221  635.103
 dbt_tas_multiply                730170  9.5    0.670    0.680  460.994  461.739
 dbt_tas_total                   730170 10.5   27.504   28.039  459.269  459.281
 dbt_tas_estimate_result_nze     365085 10.0   21.137   22.181  156.291  156.308
 dbt_remap                       486780  8.0   25.555   25.669  125.286  126.030
 dbt_tas_distribution_new       3285781 11.9   68.597   68.937  118.359  119.501
 reshape_mm_small                730170 11.5   34.312   34.433   95.198   96.056
 dbt_tas_dbm                     730170 11.5    0.567    0.580   94.792   94.821
 reshape_mm_compatible           730170 11.5    5.986    6.055   93.942   94.689
 dbt_tas_create_split           2433910 12.2    1.681    1.746   93.047   94.142
 dbm_multiply                    730170 13.5   91.111   92.918   91.111   92.918
 dbt_tas_create_split_rows_or_c 2433910 13.2    5.642    5.722   91.366   92.396
 mp_cart_create                 4908519 12.6   56.480   57.595   58.890   59.986
 change_split                    851865 11.9    2.372    2.401   59.128   59.347
 dbt_distribution_new_expert     973576  9.5    5.196    5.267   53.503   53.663
 dbt_tas_reshape                1216950 12.0    4.544    4.614   50.275   52.328
 dbt_copy                        486781  8.5    0.773    0.779   46.673   49.272
 dbt_reshape                     365085  9.7   30.788   32.378   40.839   42.979
 dbt_tas_mm_3N                   243390 12.5    0.137    0.139   39.991   40.232
 dbt_tas_replicate               730170 11.5    9.052    9.155   32.060   32.305
 dbt_tas_mm_2                    243390 12.5    0.244    0.251   31.600   31.604
 mp_comm_dup                    2068829 14.6   27.831   28.882   28.919   29.970
 reshape_mm_template             243390 12.5    6.688    6.723   26.413   27.196
 mp_comm_split_direct           2433912 14.2   25.475   25.593   26.121   26.235
 dbt_create_new                  486788  9.0    3.461    3.556   24.466   24.584
 copy_dbcsr_to_fm                162374  6.0    1.163    1.179   21.886   21.987
 dbt_tas_mm_1N                   243390 12.5    0.130    0.134   21.656   21.882
 dbt_tas_communicate_buffer     1947120 13.8    5.419    5.455   18.415   18.958
 dbt_tas_reshape_buffer_obtain  1216950 13.0   11.848   12.777   17.453   18.749
 dbcsr_complete_redistribute     324741  6.6    4.920    4.949   17.907   18.206
 mp_sync                        3650868 10.6   11.601   17.814   11.601   17.814
 mp_comm_free                   9736083 11.2   16.127   16.456   16.127   16.456
 dbt_tas_reserve_blocks_index   2920685 13.1    2.992    3.018   13.778   15.085
 dbt_pgrid_create_expert         973580 10.5    0.961    0.972   13.904   14.602
 -------------------------------------------------------------------------------

 The number of warnings for this run is : 4
 
 -------------------------------------------------------------------------------
  **** **** ******  **  PROGRAM ENDED AT                 2025-02-10 13:35:58.509
 ***** ** ***  *** **   PROGRAM RAN ON                              pc1022400703
 **    ****   ******    PROGRAM RAN BY                                  mas05075
 ***** **    ** ** **   PROGRAM PROCESS ID                                 12719
  **** **  *******  **  PROGRAM STOPPED IN /home/mas05075/Science/RTBSE/test_2nd
                                           _harmonic/CO/2/e_x/Results_3e12
