 DBCSR| CPU Multiplication driver                                           BLAS (U)
 DBCSR| Multrec recursion limit                                              512 (U)
 DBCSR| Multiplication stack size                                           1000 (D)
 DBCSR| Maximum elements for images                                    UNLIMITED (U)
 DBCSR| Multiplicative factor virtual images                                   1 (U)
 DBCSR| Use multiplication densification                                       T (D)
 DBCSR| Multiplication size stacks                                             3 (U)
 DBCSR| Use memory pool for CPU allocation                                     F (U)
 DBCSR| Number of 3D layers                                               SINGLE (U)
 DBCSR| Use MPI memory allocation                                              F (U)
 DBCSR| Use RMA algorithm                                                      F (U)
 DBCSR| Use Communication thread                                               T (U)
 DBCSR| Communication thread load                                             87 (D)
 DBCSR| MPI: My process id                                                     0
 DBCSR| MPI: Number of processes                                               4
 DBCSR| OMP: Current number of threads                                         1
 DBCSR| OMP: Max number of threads                                             1
 DBCSR| Split modifier for TAS multiplication algorithm                  1.0E+00 (U)


  **** **** ******  **  PROGRAM STARTED AT               2025-02-06 14:54:53.360
 ***** ** ***  *** **   PROGRAM STARTED ON                          pc1022400703
 **    ****   ******    PROGRAM STARTED BY                              mas05075
 ***** **    ** ** **   PROGRAM PROCESS ID                                  9642
  **** **  *******  **  PROGRAM STARTED IN /home/mas05075/Science/RTBSE/test_2nd
                                           _harmonic/CO/1/scf/Results

 CP2K| version string:                 CP2K version 2025.1 (Development Version)
 CP2K| source code revision number:                                  git:26096ef
 CP2K| cp2kflags: omp libint fftw3 libxc parallel scalapack max_contr=4         
 CP2K| is freely available from                            https://www.cp2k.org/
 CP2K| Program compiled at                          Fri 31 Jan 15:01:24 CET 2025
 CP2K| Program compiled on                                          pc1022400703
 CP2K| Program compiled for                                             personal
 CP2K| Data directory path                     /home/mas05075/Software/CP2K/data
 CP2K| Input file name                                                   scf.inp

 GLOBAL| Force Environment number                                              1
 GLOBAL| Basis set file name             BASIS_GTH_MOLOPT_AUG_for_excited_states
 GLOBAL| Potential file name                                      GTH_POTENTIALS
 GLOBAL| MM Potential file name                                     MM_POTENTIAL
 GLOBAL| Coordinate file name                                      __STD_INPUT__
 GLOBAL| Method name                                                        CP2K
 GLOBAL| Project name                                                         CO
 GLOBAL| Run type                                                         ENERGY
 GLOBAL| FFT library                                                       FFTW3
 GLOBAL| Diagonalization library                                       ScaLAPACK
 GLOBAL| DGEMM library                                                      BLAS
 GLOBAL| Orthonormality check for eigenvectors                          DISABLED
 GLOBAL| Matrix multiplication library                                 ScaLAPACK
 GLOBAL| All-to-all communication in single precision                          F
 GLOBAL| FFTs using library dependent lengths                                  F
 GLOBAL| Grid backend                                                       AUTO
 GLOBAL| Global print level                                               MEDIUM
 GLOBAL| MPI I/O enabled                                                       T
 GLOBAL| Total number of message passing processes                             4
 GLOBAL| Number of threads for this process                                    1
 GLOBAL| This output is from process                                           0
 GLOBAL| OpenMP stack size per thread (OMP_STACKSIZE)                    default
 GLOBAL| CPU model name                   AMD Ryzen 7 7730U with Radeon Graphics

 MEMORY| system memory details [Kb]
 MEMORY|                        rank 0           min           max       average
 MEMORY| MemTotal             39956460      39956460      39956460      39956460
 MEMORY| MemFree              35447852      35447852      35447852      35447852
 MEMORY| Buffers                130372        130372        130372        130372
 MEMORY| Cached                1535064       1535064       1535064       1535064
 MEMORY| Slab                   227116        227116        227116        227116
 MEMORY| SReclaimable           108780        108780        108780        108780
 MEMORY| MemLikelyFree        37222068      37222068      37222068      37222068


 *** Fundamental physical constants (SI units) ***

 *** Literature: B. J. Mohr and B. N. Taylor,
 ***             CODATA recommended values of the fundamental physical
 ***             constants: 2006, Web Version 5.1
 ***             http://physics.nist.gov/constants

 Speed of light in vacuum [m/s]                             2.99792458000000E+08
 Magnetic constant or permeability of vacuum [N/A**2]       1.25663706143592E-06
 Electric constant or permittivity of vacuum [F/m]          8.85418781762039E-12
 Planck constant (h) [J*s]                                  6.62606896000000E-34
 Planck constant (h-bar) [J*s]                              1.05457162825177E-34
 Elementary charge [C]                                      1.60217648700000E-19
 Electron mass [kg]                                         9.10938215000000E-31
 Electron g factor [ ]                                     -2.00231930436220E+00
 Proton mass [kg]                                           1.67262163700000E-27
 Fine-structure constant                                    7.29735253760000E-03
 Rydberg constant [1/m]                                     1.09737315685270E+07
 Avogadro constant [1/mol]                                  6.02214179000000E+23
 Boltzmann constant [J/K]                                   1.38065040000000E-23
 Atomic mass unit [kg]                                      1.66053878200000E-27
 Bohr radius [m]                                            5.29177208590000E-11

 *** Conversion factors ***

 [u] -> [a.u.]                                              1.82288848426455E+03
 [Angstrom] -> [Bohr] = [a.u.]                              1.88972613288564E+00
 [a.u.] = [Bohr] -> [Angstrom]                              5.29177208590000E-01
 [a.u.] -> [s]                                              2.41888432650478E-17
 [a.u.] -> [fs]                                             2.41888432650478E-02
 [a.u.] -> [J]                                              4.35974393937059E-18
 [a.u.] -> [N]                                              8.23872205491840E-08
 [a.u.] -> [K]                                              3.15774647902944E+05
 [a.u.] -> [kJ/mol]                                         2.62549961709828E+03
 [a.u.] -> [kcal/mol]                                       6.27509468713739E+02
 [a.u.] -> [Pa]                                             2.94210107994716E+13
 [a.u.] -> [bar]                                            2.94210107994716E+08
 [a.u.] -> [atm]                                            2.90362800883016E+08
 [a.u.] -> [eV]                                             2.72113838565563E+01
 [a.u.] -> [Hz]                                             6.57968392072181E+15
 [a.u.] -> [1/cm] (wave numbers)                            2.19474631370540E+05
 [a.u./Bohr**2] -> [1/cm]                                   5.14048714338585E+03
 

 CELL_TOP| Volume [angstrom^3]:                                      1000.000000
 CELL_TOP| Vector a [angstrom    10.000     0.000     0.000   |a| =    10.000000
 CELL_TOP| Vector b [angstrom     0.000    10.000     0.000   |b| =    10.000000
 CELL_TOP| Vector c [angstrom     0.000     0.000    10.000   |c| =    10.000000
 CELL_TOP| Angle (b,c), alpha [degree]:                                90.000000
 CELL_TOP| Angle (a,c), beta  [degree]:                                90.000000
 CELL_TOP| Angle (a,b), gamma [degree]:                                90.000000
 CELL_TOP| Numerically orthorhombic:                                         YES
 CELL_TOP| Periodicity                                                      NONE

 GENERATE|  Preliminary Number of Bonds generated:                             0
 GENERATE|  Achieved consistency in connectivity generation.

 CELL| Volume [angstrom^3]:                                          1000.000000
 CELL| Vector a [angstrom]:      10.000     0.000     0.000   |a| =    10.000000
 CELL| Vector b [angstrom]:       0.000    10.000     0.000   |b| =    10.000000
 CELL| Vector c [angstrom]:       0.000     0.000    10.000   |c| =    10.000000
 CELL| Angle (b,c), alpha [degree]:                                    90.000000
 CELL| Angle (a,c), beta  [degree]:                                    90.000000
 CELL| Angle (a,b), gamma [degree]:                                    90.000000
 CELL| Numerically orthorhombic:                                             YES
 CELL| Periodicity                                                          NONE

 CELL_REF| Volume [angstrom^3]:                                      1000.000000
 CELL_REF| Vector a [angstrom    10.000     0.000     0.000   |a| =    10.000000
 CELL_REF| Vector b [angstrom     0.000    10.000     0.000   |b| =    10.000000
 CELL_REF| Vector c [angstrom     0.000     0.000    10.000   |c| =    10.000000
 CELL_REF| Angle (b,c), alpha [degree]:                                90.000000
 CELL_REF| Angle (a,c), beta  [degree]:                                90.000000
 CELL_REF| Angle (a,b), gamma [degree]:                                90.000000
 CELL_REF| Numerically orthorhombic:                                         YES
 CELL_REF| Periodicity                                                      NONE

 *******************************************************************************
 *******************************************************************************
 **                                                                           **
 **     #####                         ##              ##                      **
 **    ##   ##            ##          ##              ##                      **
 **   ##     ##                       ##            ######                    **
 **   ##     ##  ##   ##  ##   #####  ##  ##   ####   ##    #####    #####    **
 **   ##     ##  ##   ##  ##  ##      ## ##   ##      ##   ##   ##  ##   ##   **
 **   ##  ## ##  ##   ##  ##  ##      ####     ###    ##   ######   ######    **
 **    ##  ###   ##   ##  ##  ##      ## ##      ##   ##   ##       ##        **
 **     #######   #####   ##   #####  ##  ##  ####    ##    #####   ##        **
 **           ##                                                    ##        **
 **                                                                           **
 **                                                ... make the atoms dance   **
 **                                                                           **
 **            Copyright (C) by CP2K developers group (2000-2025)             **
 **                      J. Chem. Phys. 152, 194103 (2020)                    **
 **                                                                           **
 *******************************************************************************

 DFT| Spin restricted Kohn-Sham (RKS) calculation                            RKS
 DFT| Multiplicity                                                             1
 DFT| Number of spin states                                                    1
 DFT| Charge                                                                   0
 DFT| Self-interaction correction (SIC)                                       NO
 DFT| Cutoffs: density                                              1.000000E-10
 DFT|          gradient                                             1.000000E-10
 DFT|          tau                                                  1.000000E-10
 DFT|          cutoff_smoothing_range                               0.000000E+00
 DFT| XC density smoothing                                                  NONE
 DFT| XC derivatives                                                          PW

 FUNCTIONAL| PBE:
 FUNCTIONAL| J.P.Perdew, K.Burke, M.Ernzerhof, Phys. Rev. Letter, vol. 77, n 18,
 FUNCTIONAL|  pp. 3865-3868, (1996) {spin unpolarized}                          


 QS| Method:                                                                 GPW
 QS| Density plane wave grid type                        NON-SPHERICAL FULLSPACE
 QS| Number of grid levels:                                                    4
 QS| Density cutoff [a.u.]:                                                200.0
 QS| Multi grid cutoff [a.u.]: 1) grid level                               200.0
 QS|                           2) grid level                                66.7
 QS|                           3) grid level                                22.2
 QS|                           4) grid level                                 7.4
 QS| Grid level progression factor:                                          3.0
 QS| Relative density cutoff [a.u.]:                                        25.0
 QS| Interaction thresholds: eps_pgf_orb:                                1.0E-05
 QS|                         eps_filter_matrix:                          0.0E+00
 QS|                         eps_core_charge:                            1.0E-12
 QS|                         eps_rho_gspace:                             1.0E-10
 QS|                         eps_rho_rspace:                             1.0E-10
 QS|                         eps_gvg_rspace:                             1.0E-05
 QS|                         eps_ppl:                                    1.0E-02
 QS|                         eps_ppnl:                                   1.0E-07


 ATOMIC KIND INFORMATION

  1. Atomic kind: C                                     Number of atoms:       1

     Orbital Basis Set                                        aug-SZV-MOLOPT-GTH

       Number of orbital shell sets:                                           1
       Number of orbital shells:                                               5
       Number of primitive Cartesian functions:                                6
       Number of Cartesian basis functions:                                   14
       Number of spherical basis functions:                                   13
       Norm type:                                                              2

       Normalised Cartesian orbitals:

                        Set   Shell   Orbital            Exponent    Coefficient

                          1       1    2s                0.128212      -0.022789
                                                         0.170000       0.000000
                                                         0.348157      -0.219794
                                                         0.769911      -0.209686
                                                         2.113016       0.213043
                                                         5.605331       0.322515

                          1       2    3s                0.128212      -0.011218
                                                         0.170000       0.211516
                                                         0.348157      -0.017308
                                                         0.769911       0.000059
                                                         2.113016       0.000000
                                                         5.605331       0.000000

                          1       3    3px               0.128212      -0.027849
                                                         0.170000       0.000000
                                                         0.348157      -0.139743
                                                         0.769911      -0.374851
                                                         2.113016      -0.642521
                                                         5.605331      -0.703879
                          1       3    3py               0.128212      -0.027849
                                                         0.170000       0.000000
                                                         0.348157      -0.139743
                                                         0.769911      -0.374851
                                                         2.113016      -0.642521
                                                         5.605331      -0.703879
                          1       3    3pz               0.128212      -0.027849
                                                         0.170000       0.000000
                                                         0.348157      -0.139743
                                                         0.769911      -0.374851
                                                         2.113016      -0.642521
                                                         5.605331      -0.703879

                          1       4    4px               0.128212      -0.292809
                                                         0.170000       0.260881
                                                         0.348157       0.116498
                                                         0.769911      -0.184036
                                                         2.113016       0.000000
                                                         5.605331       0.000000
                          1       4    4py               0.128212      -0.292809
                                                         0.170000       0.260881
                                                         0.348157       0.116498
                                                         0.769911      -0.184036
                                                         2.113016       0.000000
                                                         5.605331       0.000000
                          1       4    4pz               0.128212      -0.292809
                                                         0.170000       0.260881
                                                         0.348157       0.116498
                                                         0.769911      -0.184036
                                                         2.113016       0.000000
                                                         5.605331       0.000000

                          1       5    4dx2              0.128212       0.038324
                                                         0.170000       0.009466
                                                         0.348157       0.001927
                                                         0.769911       0.071948
                                                         2.113016       0.000000
                                                         5.605331       0.000000
                          1       5    4dxy              0.128212       0.066380
                                                         0.170000       0.016396
                                                         0.348157       0.003338
                                                         0.769911       0.124617
                                                         2.113016       0.000000
                                                         5.605331       0.000000
                          1       5    4dxz              0.128212       0.066380
                                                         0.170000       0.016396
                                                         0.348157       0.003338
                                                         0.769911       0.124617
                                                         2.113016       0.000000
                                                         5.605331       0.000000
                          1       5    4dy2              0.128212       0.038324
                                                         0.170000       0.009466
                                                         0.348157       0.001927
                                                         0.769911       0.071948
                                                         2.113016       0.000000
                                                         5.605331       0.000000
                          1       5    4dyz              0.128212       0.066380
                                                         0.170000       0.016396
                                                         0.348157       0.003338
                                                         0.769911       0.124617
                                                         2.113016       0.000000
                                                         5.605331       0.000000
                          1       5    4dz2              0.128212       0.038324
                                                         0.170000       0.009466
                                                         0.348157       0.001927
                                                         0.769911       0.071948
                                                         2.113016       0.000000
                                                         5.605331       0.000000

     RI Auxiliary Basis Set             RI_aug-SZV-MOLOPT-GTH_N_RI_067_s_p_d_f_g

       Number of orbital shell sets:                                          19
       Number of orbital shells:                                              19
       Number of primitive Cartesian functions:                               19
       Number of Cartesian basis functions:                                   81
       Number of spherical basis functions:                                   67
       Norm type:                                                              2

       Normalised Cartesian orbitals:

                        Set   Shell   Orbital            Exponent    Coefficient

                          1       1    1s                0.250759       0.252553

                          2       1    2s                0.495527       0.420930

                          3       1    3s                1.034440       0.731037

                          4       1    4s                2.235594       1.303031

                          5       1    5s                4.650070       2.256860

                          6       1    6s                9.267188       3.785481

                          7       1    7px               0.251679       0.254096
                          7       1    7py               0.251679       0.254096
                          7       1    7pz               0.251679       0.254096

                          8       1    8px               0.674377       0.871102
                          8       1    8py               0.674377       0.871102
                          8       1    8pz               0.674377       0.871102

                          9       1    9px               1.686181       2.738862
                          9       1    9py               1.686181       2.738862
                          9       1    9pz               1.686181       2.738862

                         10       1   10px               3.960243       7.963288
                         10       1   10py               3.960243       7.963288
                         10       1   10pz               3.960243       7.963288

                         11       1   11px               9.275007      23.071876
                         11       1   11py               9.275007      23.071876
                         11       1   11pz               9.275007      23.071876

                         12       1   12dx2              0.308978       0.210758
                         12       1   12dxy              0.308978       0.365043
                         12       1   12dxz              0.308978       0.365043
                         12       1   12dy2              0.308978       0.210758
                         12       1   12dyz              0.308978       0.365043
                         12       1   12dz2              0.308978       0.210758

                         13       1   13dx2              0.831349       1.191325
                         13       1   13dxy              0.831349       2.063436
                         13       1   13dxz              0.831349       2.063436
                         13       1   13dy2              0.831349       1.191325
                         13       1   13dyz              0.831349       2.063436
                         13       1   13dz2              0.831349       1.191325

                         14       1   14dx2              1.708593       4.202687
                         14       1   14dxy              1.708593       7.279267
                         14       1   14dxz              1.708593       7.279267
                         14       1   14dy2              1.708593       4.202687
                         14       1   14dyz              1.708593       7.279267
                         14       1   14dz2              1.708593       4.202687

                         15       1   15dx2              4.058751      19.102762
                         15       1   15dxy              4.058751      33.086954
                         15       1   15dxz              4.058751      33.086954
                         15       1   15dy2              4.058751      19.102762
                         15       1   15dyz              4.058751      33.086954
                         15       1   15dz2              4.058751      19.102762

                         16       1   16dx2              9.335269      82.059989
                         16       1   16dxy              9.335269     142.132070
                         16       1   16dxz              9.335269     142.132070
                         16       1   16dy2              9.335269      82.059989
                         16       1   16dyz              9.335269     142.132070
                         16       1   16dz2              9.335269      82.059989

                         17       1   17fx3              0.357831       0.145790
                         17       1   17fx2y             0.357831       0.325997
                         17       1   17fx2z             0.357831       0.325997
                         17       1   17fxy2             0.357831       0.325997
                         17       1   17fxyz             0.357831       0.564644
                         17       1   17fxz2             0.357831       0.325997
                         17       1   17fy3              0.357831       0.145790
                         17       1   17fy2z             0.357831       0.325997
                         17       1   17fyz2             0.357831       0.325997
                         17       1   17fz3              0.357831       0.145790

                         18       1   18fx3              1.699212       4.853011
                         18       1   18fx2y             1.699212      10.851663
                         18       1   18fx2z             1.699212      10.851663
                         18       1   18fxy2             1.699212      10.851663
                         18       1   18fxyz             1.699212      18.795632
                         18       1   18fxz2             1.699212      10.851663
                         18       1   18fy3              1.699212       4.853011
                         18       1   18fy2z             1.699212      10.851663
                         18       1   18fyz2             1.699212      10.851663
                         18       1   18fz3              1.699212       4.853011

                         19       1   19fx3              9.330503     223.996314
                         19       1   19fx2y             9.330503     500.870985
                         19       1   19fx2z             9.330503     500.870985
                         19       1   19fxy2             9.330503     500.870985
                         19       1   19fxyz             9.330503     867.533994
                         19       1   19fxz2             9.330503     500.870985
                         19       1   19fy3              9.330503     223.996314
                         19       1   19fy2z             9.330503     500.870985
                         19       1   19fyz2             9.330503     500.870985
                         19       1   19fz3              9.330503     223.996314

       Atomic covalent radius [Angstrom]:                                  0.770

       Atomic van der Waals radius [Angstrom]:                             1.700

     GTH Potential information for                                       GTH-PBE

       Description:                       Goedecker-Teter-Hutter pseudopotential
                                           Goedecker et al., PRB 54, 1703 (1996)
                                          Hartwigsen et al., PRB 58, 3641 (1998)
                                                      Krack, TCA 114, 145 (2005)

       Gaussian exponent of the core charge distribution:               4.364419
       Electronic configuration (s p d ...):                               2   2

       Parameters of the local part of the GTH pseudopotential:

                          rloc        C1          C2          C3          C4
                        0.338471   -8.803674    1.339211

       Parameters of the non-local part of the GTH pseudopotential:

                   l      r(l)      h(i,j,l)

                   0    0.302576    9.622487
                   1    0.291507

  2. Atomic kind: O                                     Number of atoms:       1

     Orbital Basis Set                                        aug-SZV-MOLOPT-GTH

       Number of orbital shell sets:                                           1
       Number of orbital shells:                                               5
       Number of primitive Cartesian functions:                                6
       Number of Cartesian basis functions:                                   14
       Number of spherical basis functions:                                   13
       Norm type:                                                              2

       Normalised Cartesian orbitals:

                        Set   Shell   Orbital            Exponent    Coefficient

                          1       1    2s                0.162492      -0.033677
                                                         0.200000       0.000000
                                                         0.496955      -0.274061
                                                         1.388401      -0.301641
                                                         3.849621       0.208811
                                                        10.389228       0.396646

                          1       2    3s                0.162492      -0.361060
                                                         0.200000       0.497815
                                                         0.496955       0.202465
                                                         1.388401       0.095383
                                                         3.849621       0.000000
                                                        10.389228       0.000000

                          1       3    3px               0.162492      -0.035541
                                                         0.200000       0.000000
                                                         0.496955      -0.253695
                                                         1.388401      -0.761951
                                                         3.849621      -1.371928
                                                        10.389228      -1.530415
                          1       3    3py               0.162492      -0.035541
                                                         0.200000       0.000000
                                                         0.496955      -0.253695
                                                         1.388401      -0.761951
                                                         3.849621      -1.371928
                                                        10.389228      -1.530415
                          1       3    3pz               0.162492      -0.035541
                                                         0.200000       0.000000
                                                         0.496955      -0.253695
                                                         1.388401      -0.761951
                                                         3.849621      -1.371928
                                                        10.389228      -1.530415

                          1       4    4px               0.162492       0.038040
                                                         0.200000       0.066991
                                                         0.496955       0.157162
                                                         1.388401       0.636473
                                                         3.849621       0.000000
                                                        10.389228       0.000000
                          1       4    4py               0.162492       0.038040
                                                         0.200000       0.066991
                                                         0.496955       0.157162
                                                         1.388401       0.636473
                                                         3.849621       0.000000
                                                        10.389228       0.000000
                          1       4    4pz               0.162492       0.038040
                                                         0.200000       0.066991
                                                         0.496955       0.157162
                                                         1.388401       0.636473
                                                         3.849621       0.000000
                                                        10.389228       0.000000

                          1       5    4dx2              0.162492      -0.093119
                                                         0.200000       0.067810
                                                         0.496955      -0.233391
                                                         1.388401       0.119464
                                                         3.849621       0.000000
                                                        10.389228       0.000000
                          1       5    4dxy              0.162492      -0.161287
                                                         0.200000       0.117451
                                                         0.496955      -0.404245
                                                         1.388401       0.206919
                                                         3.849621       0.000000
                                                        10.389228       0.000000
                          1       5    4dxz              0.162492      -0.161287
                                                         0.200000       0.117451
                                                         0.496955      -0.404245
                                                         1.388401       0.206919
                                                         3.849621       0.000000
                                                        10.389228       0.000000
                          1       5    4dy2              0.162492      -0.093119
                                                         0.200000       0.067810
                                                         0.496955      -0.233391
                                                         1.388401       0.119464
                                                         3.849621       0.000000
                                                        10.389228       0.000000
                          1       5    4dyz              0.162492      -0.161287
                                                         0.200000       0.117451
                                                         0.496955      -0.404245
                                                         1.388401       0.206919
                                                         3.849621       0.000000
                                                        10.389228       0.000000
                          1       5    4dz2              0.162492      -0.093119
                                                         0.200000       0.067810
                                                         0.496955      -0.233391
                                                         1.388401       0.119464
                                                         3.849621       0.000000
                                                        10.389228       0.000000

     RI Auxiliary Basis Set             RI_aug-SZV-MOLOPT-GTH_N_RI_078_s_p_d_f_g

       Number of orbital shell sets:                                          22
       Number of orbital shells:                                              22
       Number of primitive Cartesian functions:                               22
       Number of Cartesian basis functions:                                   95
       Number of spherical basis functions:                                   78
       Norm type:                                                              2

       Normalised Cartesian orbitals:

                        Set   Shell   Orbital            Exponent    Coefficient

                          1       1    1s                0.401594       0.359543

                          2       1    2s                0.755894       0.577771

                          3       1    3s                1.416722       0.925494

                          4       1    4s                2.650205       1.480368

                          5       1    5s                4.956718       2.367586

                          6       1    6s                9.262290       3.783980

                          7       1    7s               17.311568       6.048705

                          8       1    8px               0.366288       0.406180
                          8       1    8py               0.366288       0.406180
                          8       1    8pz               0.366288       0.406180

                          9       1    9px               0.838631       1.143941
                          9       1    9py               0.838631       1.143941
                          9       1    9pz               0.838631       1.143941

                         10       1   10px               1.790515       2.952314
                         10       1   10py               1.790515       2.952314
                         10       1   10pz               1.790515       2.952314

                         11       1   11px               3.856077       7.702331
                         11       1   11py               3.856077       7.702331
                         11       1   11pz               3.856077       7.702331

                         12       1   12px               8.163201      19.668248
                         12       1   12py               8.163201      19.668248
                         12       1   12pz               8.163201      19.668248

                         13       1   13px              17.241147      50.078092
                         13       1   13py              17.241147      50.078092
                         13       1   13pz              17.241147      50.078092

                         14       1   14dx2              0.406104       0.340035
                         14       1   14dxy              0.406104       0.588958
                         14       1   14dxz              0.406104       0.588958
                         14       1   14dy2              0.406104       0.340035
                         14       1   14dyz              0.406104       0.588958
                         14       1   14dz2              0.406104       0.340035

                         15       1   15dx2              1.037680       1.755985
                         15       1   15dxy              1.037680       3.041455
                         15       1   15dxz              1.037680       3.041455
                         15       1   15dy2              1.037680       1.755985
                         15       1   15dyz              1.037680       3.041455
                         15       1   15dz2              1.037680       1.755985

                         16       1   16dx2              2.651658       9.069121
                         16       1   16dxy              2.651658      15.708178
                         16       1   16dxz              2.651658      15.708178
                         16       1   16dy2              2.651658       9.069121
                         16       1   16dyz              2.651658      15.708178
                         16       1   16dz2              2.651658       9.069121

                         17       1   17dx2              6.778565      46.870600
                         17       1   17dxy              6.778565      81.182261
                         17       1   17dxz              6.778565      81.182261
                         17       1   17dy2              6.778565      46.870600
                         17       1   17dyz              6.778565      81.182261
                         17       1   17dz2              6.778565      46.870600

                         18       1   18dx2             17.317084     241.958178
                         18       1   18dxy             17.317084     419.083857
                         18       1   18dxz             17.317084     419.083857
                         18       1   18dy2             17.317084     241.958178
                         18       1   18dyz             17.317084     419.083857
                         18       1   18dz2             17.317084     241.958178

                         19       1   19fx3              0.445310       0.238476
                         19       1   19fx2y             0.445310       0.533248
                         19       1   19fx2z             0.445310       0.533248
                         19       1   19fxy2             0.445310       0.533248
                         19       1   19fxyz             0.445310       0.923612
                         19       1   19fxz2             0.445310       0.533248
                         19       1   19fy3              0.445310       0.238476
                         19       1   19fy2z             0.445310       0.533248
                         19       1   19fyz2             0.445310       0.533248
                         19       1   19fz3              0.445310       0.238476

                         20       1   20fx3              1.340594       2.846906
                         20       1   20fx2y             1.340594       6.365876
                         20       1   20fx2z             1.340594       6.365876
                         20       1   20fxy2             1.340594       6.365876
                         20       1   20fxyz             1.340594      11.026020
                         20       1   20fxz2             1.340594       6.365876
                         20       1   20fy3              1.340594       2.846906
                         20       1   20fy2z             1.340594       6.365876
                         20       1   20fyz2             1.340594       6.365876
                         20       1   20fz3              1.340594       2.846906

                         21       1   21fx3              4.941598      53.598921
                         21       1   21fx2y             4.941598     119.850830
                         21       1   21fx2z             4.941598     119.850830
                         21       1   21fxy2             4.941598     119.850830
                         21       1   21fxyz             4.941598     207.587727
                         21       1   21fxz2             4.941598     119.850830
                         21       1   21fy3              4.941598      53.598921
                         21       1   21fy2z             4.941598     119.850830
                         21       1   21fyz2             4.941598     119.850830
                         21       1   21fz3              4.941598      53.598921

                         22       1   22fx3             17.301792     898.792404
                         22       1   22fx2y            17.301792    2009.760913
                         22       1   22fx2z            17.301792    2009.760913
                         22       1   22fxy2            17.301792    2009.760913
                         22       1   22fxyz            17.301792    3481.008013
                         22       1   22fxz2            17.301792    2009.760913
                         22       1   22fy3             17.301792     898.792404
                         22       1   22fy2z            17.301792    2009.760913
                         22       1   22fyz2            17.301792    2009.760913
                         22       1   22fz3             17.301792     898.792404

       Atomic covalent radius [Angstrom]:                                  0.730

       Atomic van der Waals radius [Angstrom]:                             1.520

     GTH Potential information for                                       GTH-PBE

       Description:                       Goedecker-Teter-Hutter pseudopotential
                                           Goedecker et al., PRB 54, 1703 (1996)
                                          Hartwigsen et al., PRB 58, 3641 (1998)
                                                      Krack, TCA 114, 145 (2005)

       Gaussian exponent of the core charge distribution:               8.360253
       Electronic configuration (s p d ...):                               2   4

       Parameters of the local part of the GTH pseudopotential:

                          rloc        C1          C2          C3          C4
                        0.244554  -16.667215    2.487311

       Parameters of the non-local part of the GTH pseudopotential:

                   l      r(l)      h(i,j,l)

                   0    0.220956   18.337458
                   1    0.211332


 MOLECULE KIND INFORMATION


 All atoms are their own molecule, skipping detailed information


 TOTAL NUMBERS AND MAXIMUM NUMBERS

  Total number of            - Atomic kinds:                                   2
                             - Atoms:                                          2
                             - Shell sets:                                     2
                             - Shells:                                        10
                             - Primitive Cartesian functions:                 12
                             - Cartesian basis functions:                     28
                             - Spherical basis functions:                     26

  Maximum angular momentum of- Orbital basis functions:                        2
                             - Local part of the GTH pseudopotential:          2
                             - Non-local part of the GTH pseudopotential:      0


 MODULE QUICKSTEP: ATOMIC COORDINATES IN ANGSTROM

   Atom Kind Element         X             Y             Z       Z(eff)     Mass
      1    1 C     6      4.358500      5.000000      5.000000   4.0000  12.0107
      2    2 O     8      5.641500      5.000000      5.000000   6.0000  15.9994



 SCF PARAMETERS         Density guess:                                    ATOMIC
                        --------------------------------------------------------
                        max_scf:                                             200
                        max_scf_history:                                       0
                        max_diis:                                              4
                        --------------------------------------------------------
                        eps_scf:                                        1.00E-09
                        eps_scf_history:                                0.00E+00
                        eps_diis:                                       1.00E-01
                        eps_eigval:                                     1.00E-05
                        --------------------------------------------------------
                        level_shift [a.u.]:                             0.000000
                        added MOs                                        21    0
                        --------------------------------------------------------
                        Mixing method:                              PULAY_MIXING
                                                charge density mixing in g-space
                        --------------------------------------------------------
                        No outer SCF

 PW_GRID| Information for grid number                                          1
 PW_GRID| Grid distributed over                                     4 processors
 PW_GRID| Real space group dimensions                                     4    1
 PW_GRID| the grid is blocked:                                                NO
 PW_GRID| Cutoff [a.u.]                                                    200.0
 PW_GRID| spherical cutoff:                                                   NO
 PW_GRID|   Bounds   1            -62      62                Points:         125
 PW_GRID|   Bounds   2            -62      62                Points:         125
 PW_GRID|   Bounds   3            -62      62                Points:         125
 PW_GRID| Volume element (a.u.^3)  0.3455E-02     Volume (a.u.^3)      6748.3346
 PW_GRID| Grid span                                                    FULLSPACE
 PW_GRID|   Distribution                         Average         Max         Min
 PW_GRID|   G-Vectors                           488281.2      488375      488250
 PW_GRID|   G-Rays                                3906.2        3907        3906
 PW_GRID|   Real Space Points                   488281.2      500000      484375

 PW_GRID| Information for grid number                                          2
 PW_GRID| Number of the reference grid                                         1
 PW_GRID| Grid distributed over                                     4 processors
 PW_GRID| Real space group dimensions                                     4    1
 PW_GRID| the grid is blocked:                                                NO
 PW_GRID| Cutoff [a.u.]                                                     66.7
 PW_GRID| spherical cutoff:                                                   NO
 PW_GRID|   Bounds   1            -36      35                Points:          72
 PW_GRID|   Bounds   2            -36      35                Points:          72
 PW_GRID|   Bounds   3            -36      35                Points:          72
 PW_GRID| Volume element (a.u.^3)  0.1808E-01     Volume (a.u.^3)      6748.3346
 PW_GRID| Grid span                                                    FULLSPACE
 PW_GRID|   Distribution                         Average         Max         Min
 PW_GRID|   G-Vectors                            93312.0       93384       93240
 PW_GRID|   G-Rays                                1296.0        1297        1295
 PW_GRID|   Real Space Points                    93312.0       93312       93312

 PW_GRID| Information for grid number                                          3
 PW_GRID| Number of the reference grid                                         1
 PW_GRID| Grid distributed over                                     4 processors
 PW_GRID| Real space group dimensions                                     4    1
 PW_GRID| the grid is blocked:                                                NO
 PW_GRID| Cutoff [a.u.]                                                     22.2
 PW_GRID| spherical cutoff:                                                   NO
 PW_GRID|   Bounds   1            -22      22                Points:          45
 PW_GRID|   Bounds   2            -22      22                Points:          45
 PW_GRID|   Bounds   3            -22      22                Points:          45
 PW_GRID| Volume element (a.u.^3)  0.7406E-01     Volume (a.u.^3)      6748.3346
 PW_GRID| Grid span                                                    FULLSPACE
 PW_GRID|   Distribution                         Average         Max         Min
 PW_GRID|   G-Vectors                            22781.2       22905       22680
 PW_GRID|   G-Rays                                 506.2         509         504
 PW_GRID|   Real Space Points                    22781.2       24300       22275

 PW_GRID| Information for grid number                                          4
 PW_GRID| Number of the reference grid                                         1
 PW_GRID| Grid distributed over                                     4 processors
 PW_GRID| Real space group dimensions                                     4    1
 PW_GRID| the grid is blocked:                                                NO
 PW_GRID| Cutoff [a.u.]                                                      7.4
 PW_GRID| spherical cutoff:                                                   NO
 PW_GRID|   Bounds   1            -12      11                Points:          24
 PW_GRID|   Bounds   2            -12      11                Points:          24
 PW_GRID|   Bounds   3            -12      11                Points:          24
 PW_GRID| Volume element (a.u.^3)  0.4882         Volume (a.u.^3)      6748.3346
 PW_GRID| Grid span                                                    FULLSPACE
 PW_GRID|   Distribution                         Average         Max         Min
 PW_GRID|   G-Vectors                             3456.0        3480        3432
 PW_GRID|   G-Rays                                 144.0         145         143
 PW_GRID|   Real Space Points                     3456.0        3456        3456

 POISSON| Solver                                                         WAVELET
 POISSON| Wavelet| Scaling function                                           40
 POISSON| Periodicity                                                       NONE

 RS_GRID| Information for grid number                                          1
 RS_GRID|   Bounds   1            -62      62                Points:         125
 RS_GRID|   Bounds   2            -62      62                Points:         125
 RS_GRID|   Bounds   3            -62      62                Points:         125
 RS_GRID| Real space fully replicated
 RS_GRID| Group size                                                           1

 RS_GRID| Information for grid number                                          2
 RS_GRID|   Bounds   1            -36      35                Points:          72
 RS_GRID|   Bounds   2            -36      35                Points:          72
 RS_GRID|   Bounds   3            -36      35                Points:          72
 RS_GRID| Real space fully replicated
 RS_GRID| Group size                                                           1

 RS_GRID| Information for grid number                                          3
 RS_GRID|   Bounds   1            -22      22                Points:          45
 RS_GRID|   Bounds   2            -22      22                Points:          45
 RS_GRID|   Bounds   3            -22      22                Points:          45
 RS_GRID| Real space fully replicated
 RS_GRID| Group size                                                           1

 RS_GRID| Information for grid number                                          4
 RS_GRID|   Bounds   1            -12      11                Points:          24
 RS_GRID|   Bounds   2            -12      11                Points:          24
 RS_GRID|   Bounds   3            -12      11                Points:          24
 RS_GRID| Real space fully replicated
 RS_GRID| Group size                                                           1

 Number of electrons:                                                         10
 Number of occupied orbitals:                                                  5
 Number of molecular orbitals:                                                26

 Number of orbital functions:                                                 26
 Number of independent orbital functions:                                     26

 Extrapolation method: initial_guess

 Atomic guess: The first density matrix is obtained in terms of atomic orbitals
               and electronic configurations assigned to each atomic kind

 Guess for atomic kind: C

 Electronic structure
    Total number of core electrons                                          2.00
    Total number of valence electrons                                       4.00
    Total number of electrons                                               6.00
    Multiplicity                                                   not specified
    S   [  2.00] 2.00
    P      2.00


 *******************************************************************************
                  Iteration          Convergence                     Energy [au]
 *******************************************************************************
                          1        0.564204E-01                  -5.269594473991
                          2        0.221266E-01                  -5.271265775371
                          3        0.545175E-03                  -5.271736608327
                          4        0.787401E-06                  -5.271736826523

 Energy components [Hartree]           Total Energy ::           -5.271736826523
                                        Band Energy ::           -1.239198259046
                                     Kinetic Energy ::            3.630038591458
                                   Potential Energy ::           -8.901775417981
                                      Virial (-V/T) ::            2.452253658936
                                        Core Energy ::           -8.334885471437
                                          XC Energy ::           -1.398261642506
                                     Coulomb Energy ::            4.461410287420
                       Total Pseudopotential Energy ::          -11.998487185308
                       Local Pseudopotential Energy ::          -12.632749868480
                    Nonlocal Pseudopotential Energy ::            0.634262683172
                                        Confinement ::            0.335631224137

 Orbital energies  State     L     Occupation   Energy[a.u.]          Energy[eV]

                       1     0          2.000      -0.467017          -12.708175

                       1     1          2.000      -0.152582           -4.151975


 Total Electron Density at R=0:                                         0.000170

 Guess for atomic kind: O

 Electronic structure
    Total number of core electrons                                          2.00
    Total number of valence electrons                                       6.00
    Total number of electrons                                               8.00
    Multiplicity                                                   not specified
    S   [  2.00] 2.00
    P      4.00


 *******************************************************************************
                  Iteration          Convergence                     Energy [au]
 *******************************************************************************
                          1        0.539300                     -15.622992714775
                          2        0.346606                     -15.642003199419
                          3        0.649090E-03                 -15.655608371452
                          4        0.227403E-04                 -15.655608420146
                          5        0.122052E-04                 -15.655608420188
                          6        0.839320E-05                 -15.655608420198
                          7        0.225433E-08                 -15.655608420206

 Energy components [Hartree]           Total Energy ::          -15.655608420206
                                        Band Energy ::           -2.948570971196
                                     Kinetic Energy ::           11.776444331512
                                   Potential Energy ::          -27.432052751718
                                      Virial (-V/T) ::            2.329400282419
                                        Core Energy ::          -26.182013403148
                                          XC Energy ::           -3.165501618686
                                     Coulomb Energy ::           13.691906601628
                       Total Pseudopotential Energy ::          -37.992956980859
                       Local Pseudopotential Energy ::          -39.278776798110
                    Nonlocal Pseudopotential Energy ::            1.285819817251
                                        Confinement ::            0.344992461992

 Orbital energies  State     L     Occupation   Energy[a.u.]          Energy[eV]

                       1     0          2.000      -0.855610          -23.282319

                       1     1          4.000      -0.309338           -8.417515


 Total Electron Density at R=0:                                         0.000084
 Re-scaling the density matrix to get the right number of electrons
                  # Electrons              Trace(P)               Scaling factor
                           10                10.000                        1.000


 SCF WAVEFUNCTION OPTIMIZATION

  Step     Update method      Time    Convergence         Total energy    Change
  ------------------------------------------------------------------------------
     1 NoMix/Diag. 0.40E+00    1.2     0.70470928       -21.4149796537 -2.14E+01
     2 Pulay/Diag. 0.40E+00    1.2     0.46298960       -21.0928768678  3.22E-01
     3 Pulay/Diag. 0.40E+00    1.2     0.38067827       -21.9642690808 -8.71E-01
     4 Pulay/Diag. 0.40E+00    1.2     0.32620655       -21.1693259615  7.95E-01
     5 Pulay/Diag. 0.40E+00    1.2     0.21758513       -21.8929419992 -7.24E-01
     6 Pulay/Diag. 0.40E+00    1.2     0.15385261       -21.4167435555  4.76E-01
     7 Pulay/Diag. 0.40E+00    1.2     0.10425255       -21.7519219546 -3.35E-01
     8 Pulay/Diag. 0.40E+00    1.2     0.07126445       -21.5253674446  2.27E-01
     9 Pulay/Diag. 0.40E+00    1.2     0.04877748       -21.6809518241 -1.56E-01
    10 Pulay/Diag. 0.40E+00    1.2     0.03362953       -21.5744010347  1.07E-01
    11 Pulay/Diag. 0.40E+00    1.2     0.02308680       -21.6478054948 -7.34E-02
    12 Pulay/Diag. 0.40E+00    1.2     0.01583908       -21.5975005053  5.03E-02
    13 Pulay/Diag. 0.40E+00    1.2     0.01088333       -21.6320893535 -3.46E-02
    14 Pulay/Diag. 0.40E+00    1.2     0.00749644       -21.6083187796  2.38E-02
    15 Pulay/Diag. 0.40E+00    1.2     0.00516092       -21.6246972865 -1.64E-02
    16 Pulay/Diag. 0.40E+00    1.2     0.00355781       -21.6134214151  1.13E-02
    17 Pulay/Diag. 0.40E+00    1.2     0.00245267       -21.6211966021 -7.78E-03
    18 Pulay/Diag. 0.40E+00    1.2     0.00169082       -21.6158376509  5.36E-03
    19 Pulay/Diag. 0.40E+00    1.2     0.00116536       -21.6195321540 -3.69E-03
    20 Pulay/Diag. 0.40E+00    1.2     0.00080330       -21.6169857877  2.55E-03
    21 Pulay/Diag. 0.40E+00    1.2     0.00055368       -21.6187410081 -1.76E-03
    22 Pulay/Diag. 0.40E+00    1.2     0.00038159       -21.6175312312  1.21E-03
    23 Pulay/Diag. 0.40E+00    1.2     0.00026298       -21.6183650017 -8.34E-04
    24 Pulay/Diag. 0.40E+00    1.2     0.00018125       -21.6177903687  5.75E-04
    25 Pulay/Diag. 0.40E+00    1.2     0.00012493       -21.6181864182 -3.96E-04
    26 Pulay/Diag. 0.40E+00    1.2     0.00008610       -21.6179134491  2.73E-04
    27 Pulay/Diag. 0.40E+00    1.2     0.00005934       -21.6181015878 -1.88E-04
    28 Pulay/Diag. 0.40E+00    1.2     0.00004090       -21.6179719177  1.30E-04
    29 Pulay/Diag. 0.40E+00    1.1     0.00002819       -21.6180612903 -8.94E-05
    30 Pulay/Diag. 0.40E+00    1.2     0.00001943       -21.6179996926  6.16E-05
    31 Pulay/Diag. 0.40E+00    1.2     0.00001339       -21.6180421475 -4.25E-05
    32 Pulay/Diag. 0.40E+00    1.1     0.00000923       -21.6180128865  2.93E-05
    33 Pulay/Diag. 0.40E+00    1.2     0.00000636       -21.6180330543 -2.02E-05
    34 Pulay/Diag. 0.40E+00    1.2     0.00000438       -21.6180191551  1.39E-05
    35 Pulay/Diag. 0.40E+00    1.2     0.00000302       -21.6180287336 -9.58E-06
    36 Pulay/Diag. 0.40E+00    1.1     0.00000208       -21.6180221314  6.60E-06
    37 Pulay/Diag. 0.40E+00    1.2     0.00000143       -21.6180266802 -4.55E-06
    38 Pulay/Diag. 0.40E+00    1.2     0.00000099       -21.6180235465  3.13E-06
    39 Pulay/Diag. 0.40E+00    1.2     0.00000068       -21.6180257070 -2.16E-06
    40 Pulay/Diag. 0.40E+00    1.2     0.00000047       -21.6180242179  1.49E-06
    41 Pulay/Diag. 0.40E+00    1.2     0.00000032       -21.6180252442 -1.03E-06
    42 Pulay/Diag. 0.40E+00    1.2     0.00000022       -21.6180245370  7.07E-07
    43 Pulay/Diag. 0.40E+00    1.1     0.00000015       -21.6180250243 -4.87E-07
    44 Pulay/Diag. 0.40E+00    1.1     0.00000011       -21.6180246884  3.36E-07
    45 Pulay/Diag. 0.40E+00    1.2     0.00000007       -21.6180249199 -2.31E-07
    46 Pulay/Diag. 0.40E+00    1.2     0.00000005       -21.6180247604  1.60E-07
    47 Pulay/Diag. 0.40E+00    1.2     0.00000003       -21.6180248703 -1.10E-07
    48 Pulay/Diag. 0.40E+00    1.2     0.00000002       -21.6180247945  7.58E-08
    49 Pulay/Diag. 0.40E+00    1.1     0.00000002       -21.6180248468 -5.22E-08
    50 Pulay/Diag. 0.40E+00    1.2     0.00000001       -21.6180248108  3.60E-08
    51 Pulay/Diag. 0.40E+00    1.1     7.8247E-09       -21.6180248356 -2.48E-08
    52 Pulay/Diag. 0.40E+00    1.2     5.3929E-09       -21.6180248185  1.71E-08
    53 Pulay/Diag. 0.40E+00    1.2     3.7172E-09       -21.6180248303 -1.18E-08
    54 Pulay/Diag. 0.40E+00    1.2     2.5622E-09       -21.6180248221  8.12E-09
    55 Pulay/Diag. 0.40E+00    1.2     1.7659E-09       -21.6180248277 -5.60E-09
    56 Pulay/Diag. 0.40E+00    1.2     1.2171E-09       -21.6180248239  3.86E-09
    57 Pulay/Diag. 0.40E+00    1.2     8.3886E-10       -21.6180248265 -2.66E-09

  *** SCF run converged in    57 steps ***


  Electronic density on regular grids:        -10.0000000008       -0.0000000008
  Core density on regular grids:                9.9999999995       -0.0000000005
  Total charge density on r-space grids:       -0.0000000013
  Total charge density g-space grids:          -0.0000000013

  Overlap energy of the core charge distribution:               0.00000006326961
  Self energy of the core charge distribution:                -54.86121500576408
  Core Hamiltonian energy:                                     15.08850685770907
  Hartree energy:                                              23.10575822822465
  Exchange-correlation energy:                                 -4.95107496998609

  Total energy:                                               -21.61802482654683

 !-----------------------------------------------------------------------------!
                     Mulliken Population Analysis

 #  Atom  Element  Kind  Atomic population                           Net charge
       1     C        1          3.699994                              0.300006
       2     O        2          6.300006                             -0.300006
 # Total charge                             10.000000                  0.000000

 !-----------------------------------------------------------------------------!

 !-----------------------------------------------------------------------------!
                           Hirshfeld Charges

  #Atom  Element  Kind  Ref Charge     Population                    Net charge
      1       C      1       4.000          3.759                         0.241
      2       O      2       6.000          6.239                        -0.239

  Total Charge                                                            0.003
 !-----------------------------------------------------------------------------!
  
 -------------------------------------------------------------------------------
 -                                                                             -
 -                          BANDSTRUCTURE CALCULATION                          -
 -                                                                             -
 -------------------------------------------------------------------------------
  
 Number of occupied molecular orbitals (MOs) = Number of occupied bands        5
 Number of unoccupied (= virtual) MOs = Number of unoccupied bands            21
 Number of Gaussian basis functions for MOs                                   26
 K-point mesh for the density of states (DOS) and the self-energy      1   1   1
  
 -------------------------------------------------------------------------------
 -                                                                             -
 -                              GW CALCULATION                                 -
 -                                                                             -
 -------------------------------------------------------------------------------
  
 Input: Number of time/freq. points                                           30
 Input: Filter threshold for sparse tensor operations                    1.0E-08
 Apply Hedin shift                                                             F
  
 Number of auxiliary Gaussian basis functions for χ, ε, W                    145
 Cutoff radius for the truncated Coulomb operator in Σ^x:               2645.9 Å
 Cutoff radius for the truncated Coulomb operator in RI metric:            3.0 Å
 Regularization parameter of RI                                          0.0E+00
 Lattice sum size for V(k):                                                    3
  
 K-point mesh 1 for χ, ε, W                                            1   1   1
 K-point mesh 2 for χ, ε, W (for k-point extrapolation of W)           1   1   1
 Approximate the k-point extrapolation                                         F
 Group size for tensor operations                                              4
 The requested group size is > 1 which can lead to bad performance.
 Using more memory per MPI process might improve performance.
 (Also increase MEMORY_PER_PROC when using more memory per process.)
 
 Computed 3-center integrals (µν|P), execution time                        0.2 s
 Percentage of non-zero (µν|P)                                         100.000 %
 Max. distance between µ,ν in non-zero (µν|P)                              1.3 A
 Required memory if storing all 3-center integrals (µν|P)                   0 GB
 
 Number of i and j atoms in M_λνP(τ), N_νλQ(τ):                               36
 Number of inner loop atoms for µ in M_λνP = sum_µ (µν|P) G_µλ                 2
 
 SCF direct band gap (eV)                                                   5.86
 Max. SCF eigval diff. (eV)                                               203.50
 E-Range for minimax grid                                                  34.73
 Number of Padé parameters for analytic continuation:                         16
 
 Computed χ(iτ,k=0) for time point            1 / 30,    Execution time    0.0 s
 Computed χ(iτ,k=0) for time point            2 / 30,    Execution time    0.0 s
 Computed χ(iτ,k=0) for time point            3 / 30,    Execution time    0.0 s
 Computed χ(iτ,k=0) for time point            4 / 30,    Execution time    0.0 s
 Computed χ(iτ,k=0) for time point            5 / 30,    Execution time    0.0 s
 Computed χ(iτ,k=0) for time point            6 / 30,    Execution time    0.0 s
 Computed χ(iτ,k=0) for time point            7 / 30,    Execution time    0.0 s
 Computed χ(iτ,k=0) for time point            8 / 30,    Execution time    0.0 s
 Computed χ(iτ,k=0) for time point            9 / 30,    Execution time    0.0 s
 Computed χ(iτ,k=0) for time point           10 / 30,    Execution time    0.0 s
 Computed χ(iτ,k=0) for time point           11 / 30,    Execution time    0.0 s
 Computed χ(iτ,k=0) for time point           12 / 30,    Execution time    0.0 s
 Computed χ(iτ,k=0) for time point           13 / 30,    Execution time    0.0 s
 Computed χ(iτ,k=0) for time point           14 / 30,    Execution time    0.0 s
 Computed χ(iτ,k=0) for time point           15 / 30,    Execution time    0.0 s
 Computed χ(iτ,k=0) for time point           16 / 30,    Execution time    0.0 s
 Computed χ(iτ,k=0) for time point           17 / 30,    Execution time    0.0 s
 Computed χ(iτ,k=0) for time point           18 / 30,    Execution time    0.0 s
 Computed χ(iτ,k=0) for time point           19 / 30,    Execution time    0.0 s
 Computed χ(iτ,k=0) for time point           20 / 30,    Execution time    0.0 s
 Computed χ(iτ,k=0) for time point           21 / 30,    Execution time    0.0 s
 Computed χ(iτ,k=0) for time point           22 / 30,    Execution time    0.0 s
 Computed χ(iτ,k=0) for time point           23 / 30,    Execution time    0.0 s
 Computed χ(iτ,k=0) for time point           24 / 30,    Execution time    0.0 s
 Computed χ(iτ,k=0) for time point           25 / 30,    Execution time    0.0 s
 Computed χ(iτ,k=0) for time point           26 / 30,    Execution time    0.0 s
 Computed χ(iτ,k=0) for time point           27 / 30,    Execution time    0.0 s
 Computed χ(iτ,k=0) for time point           28 / 30,    Execution time    0.0 s
 Computed χ(iτ,k=0) for time point           29 / 30,    Execution time    0.0 s
 Computed χ(iτ,k=0) for time point           30 / 30,    Execution time    0.0 s
 
 Computed W(iτ,k) for k-point batch           1 /  1,    Execution time    0.2 s
 
 Computed Σ^x(k=0),                                      Execution time    0.0 s
 
 Computed Σ^c(iτ,k=0) for time point          1 / 30,    Execution time    0.0 s
 Computed Σ^c(iτ,k=0) for time point          2 / 30,    Execution time    0.0 s
 Computed Σ^c(iτ,k=0) for time point          3 / 30,    Execution time    0.0 s
 Computed Σ^c(iτ,k=0) for time point          4 / 30,    Execution time    0.0 s
 Computed Σ^c(iτ,k=0) for time point          5 / 30,    Execution time    0.0 s
 Computed Σ^c(iτ,k=0) for time point          6 / 30,    Execution time    0.0 s
 Computed Σ^c(iτ,k=0) for time point          7 / 30,    Execution time    0.0 s
 Computed Σ^c(iτ,k=0) for time point          8 / 30,    Execution time    0.0 s
 Computed Σ^c(iτ,k=0) for time point          9 / 30,    Execution time    0.0 s
 Computed Σ^c(iτ,k=0) for time point         10 / 30,    Execution time    0.0 s
 Computed Σ^c(iτ,k=0) for time point         11 / 30,    Execution time    0.0 s
 Computed Σ^c(iτ,k=0) for time point         12 / 30,    Execution time    0.0 s
 Computed Σ^c(iτ,k=0) for time point         13 / 30,    Execution time    0.0 s
 Computed Σ^c(iτ,k=0) for time point         14 / 30,    Execution time    0.0 s
 Computed Σ^c(iτ,k=0) for time point         15 / 30,    Execution time    0.0 s
 Computed Σ^c(iτ,k=0) for time point         16 / 30,    Execution time    0.0 s
 Computed Σ^c(iτ,k=0) for time point         17 / 30,    Execution time    0.0 s
 Computed Σ^c(iτ,k=0) for time point         18 / 30,    Execution time    0.0 s
 Computed Σ^c(iτ,k=0) for time point         19 / 30,    Execution time    0.0 s
 Computed Σ^c(iτ,k=0) for time point         20 / 30,    Execution time    0.0 s
 Computed Σ^c(iτ,k=0) for time point         21 / 30,    Execution time    0.0 s
 Computed Σ^c(iτ,k=0) for time point         22 / 30,    Execution time    0.0 s
 Computed Σ^c(iτ,k=0) for time point         23 / 30,    Execution time    0.0 s
 Computed Σ^c(iτ,k=0) for time point         24 / 30,    Execution time    0.0 s
 Computed Σ^c(iτ,k=0) for time point         25 / 30,    Execution time    0.0 s
 Computed Σ^c(iτ,k=0) for time point         26 / 30,    Execution time    0.0 s
 Computed Σ^c(iτ,k=0) for time point         27 / 30,    Execution time    0.0 s
 Computed Σ^c(iτ,k=0) for time point         28 / 30,    Execution time    0.0 s
 Computed Σ^c(iτ,k=0) for time point         29 / 30,    Execution time    0.0 s
 Computed Σ^c(iτ,k=0) for time point         30 / 30,    Execution time    0.0 s
 
 Sparsity of Σ^c(iτ,k=0): Percentage of skipped atom pairs:               25.0 %

 
 SCF valence band maximum (eV):                                           -9.186
 SCF conduction band minimum (eV):                                        -3.326
 SCF indirect band gap (eV):                                               5.860
 SCF direct band gap (eV):                                                 5.860
 
 G0W0 valence band maximum (eV):                                         -12.829
 G0W0 conduction band minimum (eV):                                        2.198
 G0W0 indirect band gap (eV):                                             15.026
 G0W0 direct band gap (eV):                                               15.026
 
 Hartree-Fock with SCF orbitals valence band maximum (eV):               -14.562
 Hartree-Fock with SCF orbitals conduction band minimum (eV)               3.044
 Hartree-Fock with SCF orbitals indirect band gap (eV):                   17.606
 Hartree-Fock with SCF orbitals direct band gap (eV):                     17.606

 ENERGY| Total FORCE_EVAL ( QS ) energy [hartree]            -21.618024826546833

 -------------------------------------------------------------------------------
 -                                                                             -
 -                                DBCSR STATISTICS                             -
 -                                                                             -
 -------------------------------------------------------------------------------
 COUNTER                                    TOTAL       BLAS       SMM       ACC
 flops    13 x    13 x    26              1502748     100.0%      0.0%      0.0%     
 flops inhomo. stacks                           0       0.0%      0.0%      0.0%
 flops total                         1.502748E+06     100.0%      0.0%      0.0%
 flops max/rank                    500.916000E+03     100.0%      0.0%      0.0%
 matmuls inhomo. stacks                         0       0.0%      0.0%      0.0%
 matmuls total                                171     100.0%      0.0%      0.0%
 number of processed stacks                   171     100.0%      0.0%      0.0%
 average stack size                                     1.0       0.0       0.0
 marketing flops                   385.320000E+03
 -------------------------------------------------------------------------------
 # multiplications                             57
 max memory usage/rank             452.157440E+06
 # max total images/rank                        1
 # max 3D layers                                1
 # MPI messages exchanged                     456
 MPI messages size (bytes):
  total size                       616.512000E+03
  min size                           0.000000E+00
  max size                           2.704000E+03
  average size                       1.352000E+03
 MPI breakdown and total messages size (bytes):
             size <=      128                 228                        0
       128 < size <=     8192                 228                   616512
      8192 < size <=    32768                   0                        0
     32768 < size <=   131072                   0                        0
    131072 < size <=  4194304                   0                        0
   4194304 < size <= 16777216                   0                        0
  16777216 < size                               0                        0
 -------------------------------------------------------------------------------
 -                                                                             -
 -                      DBCSR MESSAGE PASSING PERFORMANCE                      -
 -                                                                             -
 -------------------------------------------------------------------------------
 ROUTINE             CALLS      AVE VOLUME [Bytes]
 MP_Bcast                2                     12.
 MP_Allreduce          421                      9.
 MP_Alltoall          5001                   4628.
 MP_ISend              456                    720.
 MP_IRecv              456                     41.
 -------------------------------------------------------------------------------

 -------------------------------------------------------------------------------
 -                                                                             -
 -                                DBM STATISTICS                               -
 -                                                                             -
 -------------------------------------------------------------------------------
    M  x    N  x    K                                          COUNT     PERCENT
    ?  x    ?  x    ?                                           2439      49.99%
  ???  x   ??  x   ??                                            632      12.95%
 >999  x   ??  x   ??                                            632      12.95%
   ??  x   ??  x  ???                                            600      12.30%
   ??  x  ???  x   ??                                            296       6.07%
   ??  x   ??  x >999                                            280       5.74%
 -------------------------------------------------------------------------------
 Memory consumption                            Number of allocations  Size [MiB]
 Host                                                             19           1
 -------------------------------------------------------------------------------

 -------------------------------------------------------------------------------
 -                                                                             -
 -                                GRID STATISTICS                              -
 -                                                                             -
 -------------------------------------------------------------------------------
 LP    KERNEL             BACKEND                              COUNT     PERCENT
 4     collocate ortho    CPU                                   6264      49.98%
 4     integrate ortho    CPU                                   6264      49.98%
 0     collocate general  CPU                                      4       0.03%
 0     integrate general  CPU                                      2       0.02%
 -------------------------------------------------------------------------------

 MEMORY| Estimated peak process memory [MiB]                                 442

 -------------------------------------------------------------------------------
 ----                             MULTIGRID INFO                            ----
 -------------------------------------------------------------------------------
 count for grid        1:          28164          cutoff [a.u.]          200.00
 count for grid        2:          16366          cutoff [a.u.]           66.67
 count for grid        3:          13240          cutoff [a.u.]           22.22
 count for grid        4:           1554          cutoff [a.u.]            7.41
 total gridlevel count  :          59324

 -------------------------------------------------------------------------------
 -                                                                             -
 -                         MESSAGE PASSING PERFORMANCE                         -
 -                                                                             -
 -------------------------------------------------------------------------------

 ROUTINE             CALLS      AVE VOLUME [Bytes]
 MP_Group             1890
 MP_Bcast             1413                 746737.
 MP_Allreduce         4026                     81.
 MP_Sync              2542
 MP_Alltoall          2747               10521709.
 MP_SendRecv           702                1265707.
 MP_ISendRecv          699                1253972.
 MP_Wait              2674
 MP_comm_split        1159
 MP_ISend             1835                  13611.
 MP_IRecv             2011                  12495.
 -------------------------------------------------------------------------------


 -------------------------------------------------------------------------------
 -                                                                             -
 -                           R E F E R E N C E S                               -
 -                                                                             -
 -------------------------------------------------------------------------------
 
 CP2K version 2025.1 (Development Version), the CP2K developers group (2025).
 CP2K is freely available from https://www.cp2k.org/ .
 
 M. Graml, K. Zollner, D. Hernangómez-Pérez, P. E. Faria Junior, J. Wilhelm.
 J. Chem. Theory Comput. 20, 2202-2208 (2024).
 Low-scaling GW algorithm applied to twisted transition-metal dichalcogenide 
 heterobilayers.
 https://doi.org/10.1021/acs.jctc.3c01230

 T. D. Kuehne, M. Iannuzzi, M. Del Ben, V. V. Rybkin, P. Seewald, F. Stein, T. 
 Laino, R. Z. Khaliullin, O. Schuett, F. Schiffmann, D. Golze, J. Wilhelm, S. 
 Chulkov, M. H. Bani-Hashemian, V. Weber, U. Borstnik, M. Taillefumier, A. S. 
 Jakobovits, A. Lazzaro, H. Pabst, T. Mueller, R. Schade, M. Guidon, S. 
 Andermatt, N. Holmberg, G. K. Schenter, A. Hehn, A. Bussy, F. Belleflamme, G. 
 Tabacchi, A. Gloess, M. Lass, I. Bethune, C. J. Mundy, C. Plessl, M. Watkins, 
 J. VandeVondele, M. Krack, J. Hutter.
 J. Chem. Phys. 152, 194103 (2020).
 CP2K: An electronic structure and molecular dynamics software package - 
 Quickstep: Efficient and accurate electronic structure calculations.
 https://doi.org/10.1063/5.0007045

 O. Schuett, P. Messmer, J. Hutter, J. VandeVondele.
 Electronic Structure Calculations on Graphics Processing Units, 173-190 (2016).
 GPU-Accelerated Sparse Matrix-Matrix Multiplication for Linear Scaling Density 
 Functional Theory.
 https://doi.org/10.1002/9781118670712.ch8

 J. Hutter, M. Iannuzzi, F. Schiffmann, J. VandeVondele.
 WIREs Comput Mol Sci. 4, 15-25 (2014).
 CP2K: atomistic simulations of condensed matter systems.
 https://doi.org/10.1002/wcms.1159

 U. Borstnik, J. VandeVondele, V. Weber, J. Hutter.
 Parallel Comput. 40, 47-58 (2014).
 Sparse matrix multiplication: The distributed block-compressed sparse row 
 library.
 https://doi.org/10.1016/j.parco.2014.03.012

 L. Genovese, T. Deutsch, S. Goedecker.
 J. Chem. Phys. 127, 054704 (2007).
 Efficient and accurate three-dimensional Poisson solver for surface problems.
 https://doi.org/10.1063/1.2754685

 J. VandeVondele, J. Hutter.
 J. Chem. Phys. 127, 114105 (2007).
 Gaussian basis sets for accurate calculations on molecular systems in gas and 
 condensed phases.
 https://doi.org/10.1063/1.2770708

 L. Genovese, T. Deutsch, A. Neelov, S. Goedecker, G. Beylkin.
 J. Chem. Phys. 125, 074105 (2006).
 Efficient solution of Poisson's equation with free boundary conditions.
 https://doi.org/10.1063/1.2335442

 J. VandeVondele, M. Krack, F. Mohamed, M. Parrinello, T. Chassaing, J. Hutter.
 Comput. Phys. Commun. 167, 103-128 (2005).
 QUICKSTEP: Fast and accurate density functional calculations using a mixed 
 Gaussian and plane waves approach.
 https://doi.org/10.1016/j.cpc.2004.12.014

 M. Krack.
 Theor. Chem. Acc. 114, 145-152 (2005).
 Pseudopotentials for H to Kr optimized for gradient-corrected 
 exchange-correlation functionals.
 https://doi.org/10.1007/s00214-005-0655-y

 M. Frigo, S. G. Johnson.
 Proc. IEEE 93, 216-231 (2005).
 The design and implementation of FFTW3.
 https://doi.org/10.1109/JPROC.2004.840301

 C. Hartwigsen, S. Goedecker, J. Hutter.
 Phys. Rev. B 58, 3641-3662 (1998).
 Relativistic separable dual-space Gaussian pseudopotentials from H to Rn.
 https://doi.org/10.1103/PhysRevB.58.3641

 G. Lippert, J. Hutter, M. Parrinello.
 Mol. Phys. 92, 477-487 (1997).
 A hybrid Gaussian and plane wave density functional scheme.
 https://doi.org/10.1080/002689797170220

 S. Goedecker, M. Teter, J. Hutter.
 Phys. Rev. B 54, 1703-1710 (1996).
 Separable dual-space Gaussian pseudopotentials.
 https://doi.org/10.1103/PhysRevB.54.1703

 J. P. Perdew, K. Burke, M. Ernzerhof.
 Phys. Rev. Lett. 77, 3865-3868 (1996).
 Generalized gradient approximation made simple.
 https://doi.org/10.1103/PhysRevLett.77.3865


 -------------------------------------------------------------------------------
 -                                                                             -
 -                                T I M I N G                                  -
 -                                                                             -
 -------------------------------------------------------------------------------
 SUBROUTINE                       CALLS  ASD         SELF TIME        TOTAL TIME
                                MAXIMUM       AVERAGE  MAXIMUM  AVERAGE  MAXIMUM
 CP2K                                 1  1.0    0.004    0.006   69.026   69.026
 qs_energies                          1  2.0    0.000    0.000   68.818   68.821
 scf_env_do_scf                       1  3.0    0.000    0.000   66.437   66.437
 scf_env_do_scf_inner_loop           57  4.0    0.001    0.002   66.436   66.437
 qs_ks_build_kohn_sham_matrix        58  7.0    0.006    0.007   51.612   51.647
 qs_ks_update_qs_env                 57  5.0    0.000    0.000   51.215   51.250
 rebuild_ks_matrix                   57  6.0    0.000    0.000   51.214   51.248
 fft_wrap_pw1pw2                   1152  9.9    0.019    0.020   43.759   44.904
 fft_wrap_pw1pw2_200                804 11.1    1.774    1.787   42.680   44.030
 fft3d_ps                          1152 11.9   19.846   21.275   30.653   31.919
 qs_vxc_create                       58  8.0    0.001    0.001   27.956   28.196
 xc_vxc_pw_create                    57  9.0    0.185    0.197   27.955   28.195
 xc_pw_derive                       342 11.0    0.004    0.004   20.674   21.642
 xc_pw_divergence                    57 10.0    0.002    0.002   13.790   14.890
 xc_rho_set_and_dset_create          57 10.0    0.192    0.213   13.745   14.754
 pw_poisson_solve                    58  8.0    1.471    1.532   14.716   14.718
 qs_rho_update_rho_low               58  5.0    0.000    0.000    9.755    9.755
 calculate_rho_elec                  58  6.0    0.083    0.084    9.755    9.755
 density_rs2pw                       58  7.0    0.003    0.003    8.538    8.682
 x_to_yz                            632 13.1    4.124    4.226    6.448    7.425
 mp_alltoall_z22v                  1152 13.9    5.032    5.779    5.032    5.779
 gspace_mixing                       56  5.0    0.080    0.081    5.518    5.518
 sum_up_and_integrate                58  8.0    0.001    0.001    5.427    5.460
 pw_scatter_p                       632 12.1    4.897    5.356    4.897    5.356
 integrate_v_rspace                  58  9.0    0.001    0.002    5.271    5.299
 potential_pw2rs                     58 10.0    0.006    0.007    5.211    5.216
 yz_to_x                            520 12.8    1.633    1.680    4.341    5.012
 pw_gather_p                        520 11.8    4.663    4.980    4.663    4.980
 xc_functional_eval                  57 11.0    0.001    0.001    2.864    3.824
 pbe_lda_eval                        57 12.0    2.863    3.824    2.863    3.824
 ps_wavelet_solve                    58  9.0    2.994    3.062    3.789    3.822
 pw_derive                          516 11.3    2.847    2.895    2.847    2.895
 pulay_mixing                        56  6.0    2.551    2.567    2.559    2.573
 qs_energies_properties               1  3.0    0.000    0.000    2.012    2.016
 post_scf_bandstructure               1  4.0    0.000    0.000    2.012    2.016
 gw                                   1  5.0    0.000    0.000    2.008    2.008
 pw_copy                            749 10.8    1.688    1.793    1.688    1.793
 pw_poisson_set                      59  9.0    0.002    0.002    1.777    1.780
 transfer_rs2pw                     234  8.0    0.003    0.004    1.522    1.648
 transfer_pw2rs                     233 11.0    0.002    0.002    1.493    1.494
 transfer_rs2pw_200                  60  8.9    1.004    1.056    1.332    1.464
 -------------------------------------------------------------------------------

 The number of warnings for this run is : 0
 
 -------------------------------------------------------------------------------
  **** **** ******  **  PROGRAM ENDED AT                 2025-02-06 14:56:03.572
 ***** ** ***  *** **   PROGRAM RAN ON                              pc1022400703
 **    ****   ******    PROGRAM RAN BY                                  mas05075
 ***** **    ** ** **   PROGRAM PROCESS ID                                  9642
  **** **  *******  **  PROGRAM STOPPED IN /home/mas05075/Science/RTBSE/test_2nd
                                           _harmonic/CO/1/scf/Results
