 DBCSR| CPU Multiplication driver                                           BLAS (U)
 DBCSR| Multrec recursion limit                                              512 (U)
 DBCSR| Multiplication stack size                                           1000 (D)
 DBCSR| Maximum elements for images                                    UNLIMITED (U)
 DBCSR| Multiplicative factor virtual images                                   1 (U)
 DBCSR| Use multiplication densification                                       T (D)
 DBCSR| Multiplication size stacks                                             3 (U)
 DBCSR| Use memory pool for CPU allocation                                     F (U)
 DBCSR| Number of 3D layers                                               SINGLE (U)
 DBCSR| Use MPI memory allocation                                              F (U)
 DBCSR| Use RMA algorithm                                                      F (U)
 DBCSR| Use Communication thread                                               T (U)
 DBCSR| Communication thread load                                             87 (D)
 DBCSR| MPI: My process id                                                     0
 DBCSR| MPI: Number of processes                                               4
 DBCSR| OMP: Current number of threads                                         1
 DBCSR| OMP: Max number of threads                                             1
 DBCSR| Split modifier for TAS multiplication algorithm                  1.0E+00 (U)


  **** **** ******  **  PROGRAM STARTED AT               2025-02-07 14:16:50.461
 ***** ** ***  *** **   PROGRAM STARTED ON                          pc1022400703
 **    ****   ******    PROGRAM STARTED BY                              mas05075
 ***** **    ** ** **   PROGRAM PROCESS ID                                 24213
  **** **  *******  **  PROGRAM STARTED IN /home/mas05075/Science/RTBSE/test_2nd
                                           _harmonic/CO/2/e_x/Results

 CP2K| version string:                 CP2K version 2025.1 (Development Version)
 CP2K| source code revision number:                                  git:26096ef
 CP2K| cp2kflags: omp libint fftw3 libxc parallel scalapack max_contr=4         
 CP2K| is freely available from                            https://www.cp2k.org/
 CP2K| Program compiled at                          Fri 31 Jan 15:01:24 CET 2025
 CP2K| Program compiled on                                          pc1022400703
 CP2K| Program compiled for                                             personal
 CP2K| Data directory path                     /home/mas05075/Software/CP2K/data
 CP2K| Input file name                                                 rtbse.inp

 GLOBAL| Force Environment number                                              1
 GLOBAL| Basis set file name             BASIS_GTH_MOLOPT_AUG_for_excited_states
 GLOBAL| Potential file name                                      GTH_POTENTIALS
 GLOBAL| MM Potential file name                                     MM_POTENTIAL
 GLOBAL| Coordinate file name                                      __STD_INPUT__
 GLOBAL| Method name                                                        CP2K
 GLOBAL| Project name                                                         CO
 GLOBAL| Run type                                                 RT_PROPAGATION
 GLOBAL| FFT library                                                       FFTW3
 GLOBAL| Diagonalization library                                       ScaLAPACK
 GLOBAL| DGEMM library                                                      BLAS
 GLOBAL| Orthonormality check for eigenvectors                          DISABLED
 GLOBAL| Matrix multiplication library                                 ScaLAPACK
 GLOBAL| All-to-all communication in single precision                          F
 GLOBAL| FFTs using library dependent lengths                                  F
 GLOBAL| Grid backend                                                       AUTO
 GLOBAL| Global print level                                               MEDIUM
 GLOBAL| MPI I/O enabled                                                       T
 GLOBAL| Total number of message passing processes                             4
 GLOBAL| Number of threads for this process                                    1
 GLOBAL| This output is from process                                           0
 GLOBAL| OpenMP stack size per thread (OMP_STACKSIZE)                    default
 GLOBAL| CPU model name                   AMD Ryzen 7 7730U with Radeon Graphics

 MEMORY| system memory details [Kb]
 MEMORY|                        rank 0           min           max       average
 MEMORY| MemTotal             39956452      39956452      39956452      39956452
 MEMORY| MemFree              34028780      34028780      34028780      34028780
 MEMORY| Buffers                160480        160480        160480        160480
 MEMORY| Cached                3652976       3652976       3652976       3652976
 MEMORY| Slab                   287180        287180        287180        287180
 MEMORY| SReclaimable           160796        160796        160796        160796
 MEMORY| MemLikelyFree        38003032      38003032      38003032      38003032


 *** Fundamental physical constants (SI units) ***

 *** Literature: B. J. Mohr and B. N. Taylor,
 ***             CODATA recommended values of the fundamental physical
 ***             constants: 2006, Web Version 5.1
 ***             http://physics.nist.gov/constants

 Speed of light in vacuum [m/s]                             2.99792458000000E+08
 Magnetic constant or permeability of vacuum [N/A**2]       1.25663706143592E-06
 Electric constant or permittivity of vacuum [F/m]          8.85418781762039E-12
 Planck constant (h) [J*s]                                  6.62606896000000E-34
 Planck constant (h-bar) [J*s]                              1.05457162825177E-34
 Elementary charge [C]                                      1.60217648700000E-19
 Electron mass [kg]                                         9.10938215000000E-31
 Electron g factor [ ]                                     -2.00231930436220E+00
 Proton mass [kg]                                           1.67262163700000E-27
 Fine-structure constant                                    7.29735253760000E-03
 Rydberg constant [1/m]                                     1.09737315685270E+07
 Avogadro constant [1/mol]                                  6.02214179000000E+23
 Boltzmann constant [J/K]                                   1.38065040000000E-23
 Atomic mass unit [kg]                                      1.66053878200000E-27
 Bohr radius [m]                                            5.29177208590000E-11

 *** Conversion factors ***

 [u] -> [a.u.]                                              1.82288848426455E+03
 [Angstrom] -> [Bohr] = [a.u.]                              1.88972613288564E+00
 [a.u.] = [Bohr] -> [Angstrom]                              5.29177208590000E-01
 [a.u.] -> [s]                                              2.41888432650478E-17
 [a.u.] -> [fs]                                             2.41888432650478E-02
 [a.u.] -> [J]                                              4.35974393937059E-18
 [a.u.] -> [N]                                              8.23872205491840E-08
 [a.u.] -> [K]                                              3.15774647902944E+05
 [a.u.] -> [kJ/mol]                                         2.62549961709828E+03
 [a.u.] -> [kcal/mol]                                       6.27509468713739E+02
 [a.u.] -> [Pa]                                             2.94210107994716E+13
 [a.u.] -> [bar]                                            2.94210107994716E+08
 [a.u.] -> [atm]                                            2.90362800883016E+08
 [a.u.] -> [eV]                                             2.72113838565563E+01
 [a.u.] -> [Hz]                                             6.57968392072181E+15
 [a.u.] -> [1/cm] (wave numbers)                            2.19474631370540E+05
 [a.u./Bohr**2] -> [1/cm]                                   5.14048714338585E+03
 

 CELL_TOP| Volume [angstrom^3]:                                      1000.000000
 CELL_TOP| Vector a [angstrom    10.000     0.000     0.000   |a| =    10.000000
 CELL_TOP| Vector b [angstrom     0.000    10.000     0.000   |b| =    10.000000
 CELL_TOP| Vector c [angstrom     0.000     0.000    10.000   |c| =    10.000000
 CELL_TOP| Angle (b,c), alpha [degree]:                                90.000000
 CELL_TOP| Angle (a,c), beta  [degree]:                                90.000000
 CELL_TOP| Angle (a,b), gamma [degree]:                                90.000000
 CELL_TOP| Numerically orthorhombic:                                         YES
 CELL_TOP| Periodicity                                                      NONE

 GENERATE|  Preliminary Number of Bonds generated:                             0
 GENERATE|  Achieved consistency in connectivity generation.

 CELL| Volume [angstrom^3]:                                          1000.000000
 CELL| Vector a [angstrom]:      10.000     0.000     0.000   |a| =    10.000000
 CELL| Vector b [angstrom]:       0.000    10.000     0.000   |b| =    10.000000
 CELL| Vector c [angstrom]:       0.000     0.000    10.000   |c| =    10.000000
 CELL| Angle (b,c), alpha [degree]:                                    90.000000
 CELL| Angle (a,c), beta  [degree]:                                    90.000000
 CELL| Angle (a,b), gamma [degree]:                                    90.000000
 CELL| Numerically orthorhombic:                                             YES
 CELL| Periodicity                                                          NONE

 CELL_REF| Volume [angstrom^3]:                                      1000.000000
 CELL_REF| Vector a [angstrom    10.000     0.000     0.000   |a| =    10.000000
 CELL_REF| Vector b [angstrom     0.000    10.000     0.000   |b| =    10.000000
 CELL_REF| Vector c [angstrom     0.000     0.000    10.000   |c| =    10.000000
 CELL_REF| Angle (b,c), alpha [degree]:                                90.000000
 CELL_REF| Angle (a,c), beta  [degree]:                                90.000000
 CELL_REF| Angle (a,b), gamma [degree]:                                90.000000
 CELL_REF| Numerically orthorhombic:                                         YES
 CELL_REF| Periodicity                                                      NONE

 *******************************************************************************
 *******************************************************************************
 **                                                                           **
 **     #####                         ##              ##                      **
 **    ##   ##            ##          ##              ##                      **
 **   ##     ##                       ##            ######                    **
 **   ##     ##  ##   ##  ##   #####  ##  ##   ####   ##    #####    #####    **
 **   ##     ##  ##   ##  ##  ##      ## ##   ##      ##   ##   ##  ##   ##   **
 **   ##  ## ##  ##   ##  ##  ##      ####     ###    ##   ######   ######    **
 **    ##  ###   ##   ##  ##  ##      ## ##      ##   ##   ##       ##        **
 **     #######   #####   ##   #####  ##  ##  ####    ##    #####   ##        **
 **           ##                                                    ##        **
 **                                                                           **
 **                                                ... make the atoms dance   **
 **                                                                           **
 **            Copyright (C) by CP2K developers group (2000-2025)             **
 **                      J. Chem. Phys. 152, 194103 (2020)                    **
 **                                                                           **
 *******************************************************************************

 DFT| Spin restricted Kohn-Sham (RKS) calculation                            RKS
 DFT| Multiplicity                                                             1
 DFT| Number of spin states                                                    1
 DFT| Charge                                                                   0
 DFT| Self-interaction correction (SIC)                                       NO
 DFT| Cutoffs: density                                              1.000000E-10
 DFT|          gradient                                             1.000000E-10
 DFT|          tau                                                  1.000000E-10
 DFT|          cutoff_smoothing_range                               0.000000E+00
 DFT| XC density smoothing                                                  NONE
 DFT| XC derivatives                                                          PW

 FUNCTIONAL| PBE:
 FUNCTIONAL| J.P.Perdew, K.Burke, M.Ernzerhof, Phys. Rev. Letter, vol. 77, n 18,
 FUNCTIONAL|  pp. 3865-3868, (1996) {spin unpolarized}                          


 QS| Method:                                                                 GPW
 QS| Density plane wave grid type                        NON-SPHERICAL FULLSPACE
 QS| Number of grid levels:                                                    4
 QS| Density cutoff [a.u.]:                                                200.0
 QS| Multi grid cutoff [a.u.]: 1) grid level                               200.0
 QS|                           2) grid level                                66.7
 QS|                           3) grid level                                22.2
 QS|                           4) grid level                                 7.4
 QS| Grid level progression factor:                                          3.0
 QS| Relative density cutoff [a.u.]:                                        25.0
 QS| Interaction thresholds: eps_pgf_orb:                                1.0E-05
 QS|                         eps_filter_matrix:                          0.0E+00
 QS|                         eps_core_charge:                            1.0E-12
 QS|                         eps_rho_gspace:                             1.0E-10
 QS|                         eps_rho_rspace:                             1.0E-10
 QS|                         eps_gvg_rspace:                             1.0E-05
 QS|                         eps_ppl:                                    1.0E-02
 QS|                         eps_ppnl:                                   1.0E-07


 ATOMIC KIND INFORMATION

  1. Atomic kind: C                                     Number of atoms:       1

     Orbital Basis Set                                        aug-SZV-MOLOPT-GTH

       Number of orbital shell sets:                                           1
       Number of orbital shells:                                               5
       Number of primitive Cartesian functions:                                6
       Number of Cartesian basis functions:                                   14
       Number of spherical basis functions:                                   13
       Norm type:                                                              2

       Normalised Cartesian orbitals:

                        Set   Shell   Orbital            Exponent    Coefficient

                          1       1    2s                0.128212      -0.022789
                                                         0.170000       0.000000
                                                         0.348157      -0.219794
                                                         0.769911      -0.209686
                                                         2.113016       0.213043
                                                         5.605331       0.322515

                          1       2    3s                0.128212      -0.011218
                                                         0.170000       0.211516
                                                         0.348157      -0.017308
                                                         0.769911       0.000059
                                                         2.113016       0.000000
                                                         5.605331       0.000000

                          1       3    3px               0.128212      -0.027849
                                                         0.170000       0.000000
                                                         0.348157      -0.139743
                                                         0.769911      -0.374851
                                                         2.113016      -0.642521
                                                         5.605331      -0.703879
                          1       3    3py               0.128212      -0.027849
                                                         0.170000       0.000000
                                                         0.348157      -0.139743
                                                         0.769911      -0.374851
                                                         2.113016      -0.642521
                                                         5.605331      -0.703879
                          1       3    3pz               0.128212      -0.027849
                                                         0.170000       0.000000
                                                         0.348157      -0.139743
                                                         0.769911      -0.374851
                                                         2.113016      -0.642521
                                                         5.605331      -0.703879

                          1       4    4px               0.128212      -0.292809
                                                         0.170000       0.260881
                                                         0.348157       0.116498
                                                         0.769911      -0.184036
                                                         2.113016       0.000000
                                                         5.605331       0.000000
                          1       4    4py               0.128212      -0.292809
                                                         0.170000       0.260881
                                                         0.348157       0.116498
                                                         0.769911      -0.184036
                                                         2.113016       0.000000
                                                         5.605331       0.000000
                          1       4    4pz               0.128212      -0.292809
                                                         0.170000       0.260881
                                                         0.348157       0.116498
                                                         0.769911      -0.184036
                                                         2.113016       0.000000
                                                         5.605331       0.000000

                          1       5    4dx2              0.128212       0.038324
                                                         0.170000       0.009466
                                                         0.348157       0.001927
                                                         0.769911       0.071948
                                                         2.113016       0.000000
                                                         5.605331       0.000000
                          1       5    4dxy              0.128212       0.066380
                                                         0.170000       0.016396
                                                         0.348157       0.003338
                                                         0.769911       0.124617
                                                         2.113016       0.000000
                                                         5.605331       0.000000
                          1       5    4dxz              0.128212       0.066380
                                                         0.170000       0.016396
                                                         0.348157       0.003338
                                                         0.769911       0.124617
                                                         2.113016       0.000000
                                                         5.605331       0.000000
                          1       5    4dy2              0.128212       0.038324
                                                         0.170000       0.009466
                                                         0.348157       0.001927
                                                         0.769911       0.071948
                                                         2.113016       0.000000
                                                         5.605331       0.000000
                          1       5    4dyz              0.128212       0.066380
                                                         0.170000       0.016396
                                                         0.348157       0.003338
                                                         0.769911       0.124617
                                                         2.113016       0.000000
                                                         5.605331       0.000000
                          1       5    4dz2              0.128212       0.038324
                                                         0.170000       0.009466
                                                         0.348157       0.001927
                                                         0.769911       0.071948
                                                         2.113016       0.000000
                                                         5.605331       0.000000

     RI Auxiliary Basis Set             RI_aug-SZV-MOLOPT-GTH_N_RI_067_s_p_d_f_g

       Number of orbital shell sets:                                          19
       Number of orbital shells:                                              19
       Number of primitive Cartesian functions:                               19
       Number of Cartesian basis functions:                                   81
       Number of spherical basis functions:                                   67
       Norm type:                                                              2

       Normalised Cartesian orbitals:

                        Set   Shell   Orbital            Exponent    Coefficient

                          1       1    1s                0.250759       0.252553

                          2       1    2s                0.495527       0.420930

                          3       1    3s                1.034440       0.731037

                          4       1    4s                2.235594       1.303031

                          5       1    5s                4.650070       2.256860

                          6       1    6s                9.267188       3.785481

                          7       1    7px               0.251679       0.254096
                          7       1    7py               0.251679       0.254096
                          7       1    7pz               0.251679       0.254096

                          8       1    8px               0.674377       0.871102
                          8       1    8py               0.674377       0.871102
                          8       1    8pz               0.674377       0.871102

                          9       1    9px               1.686181       2.738862
                          9       1    9py               1.686181       2.738862
                          9       1    9pz               1.686181       2.738862

                         10       1   10px               3.960243       7.963288
                         10       1   10py               3.960243       7.963288
                         10       1   10pz               3.960243       7.963288

                         11       1   11px               9.275007      23.071876
                         11       1   11py               9.275007      23.071876
                         11       1   11pz               9.275007      23.071876

                         12       1   12dx2              0.308978       0.210758
                         12       1   12dxy              0.308978       0.365043
                         12       1   12dxz              0.308978       0.365043
                         12       1   12dy2              0.308978       0.210758
                         12       1   12dyz              0.308978       0.365043
                         12       1   12dz2              0.308978       0.210758

                         13       1   13dx2              0.831349       1.191325
                         13       1   13dxy              0.831349       2.063436
                         13       1   13dxz              0.831349       2.063436
                         13       1   13dy2              0.831349       1.191325
                         13       1   13dyz              0.831349       2.063436
                         13       1   13dz2              0.831349       1.191325

                         14       1   14dx2              1.708593       4.202687
                         14       1   14dxy              1.708593       7.279267
                         14       1   14dxz              1.708593       7.279267
                         14       1   14dy2              1.708593       4.202687
                         14       1   14dyz              1.708593       7.279267
                         14       1   14dz2              1.708593       4.202687

                         15       1   15dx2              4.058751      19.102762
                         15       1   15dxy              4.058751      33.086954
                         15       1   15dxz              4.058751      33.086954
                         15       1   15dy2              4.058751      19.102762
                         15       1   15dyz              4.058751      33.086954
                         15       1   15dz2              4.058751      19.102762

                         16       1   16dx2              9.335269      82.059989
                         16       1   16dxy              9.335269     142.132070
                         16       1   16dxz              9.335269     142.132070
                         16       1   16dy2              9.335269      82.059989
                         16       1   16dyz              9.335269     142.132070
                         16       1   16dz2              9.335269      82.059989

                         17       1   17fx3              0.357831       0.145790
                         17       1   17fx2y             0.357831       0.325997
                         17       1   17fx2z             0.357831       0.325997
                         17       1   17fxy2             0.357831       0.325997
                         17       1   17fxyz             0.357831       0.564644
                         17       1   17fxz2             0.357831       0.325997
                         17       1   17fy3              0.357831       0.145790
                         17       1   17fy2z             0.357831       0.325997
                         17       1   17fyz2             0.357831       0.325997
                         17       1   17fz3              0.357831       0.145790

                         18       1   18fx3              1.699212       4.853011
                         18       1   18fx2y             1.699212      10.851663
                         18       1   18fx2z             1.699212      10.851663
                         18       1   18fxy2             1.699212      10.851663
                         18       1   18fxyz             1.699212      18.795632
                         18       1   18fxz2             1.699212      10.851663
                         18       1   18fy3              1.699212       4.853011
                         18       1   18fy2z             1.699212      10.851663
                         18       1   18fyz2             1.699212      10.851663
                         18       1   18fz3              1.699212       4.853011

                         19       1   19fx3              9.330503     223.996314
                         19       1   19fx2y             9.330503     500.870985
                         19       1   19fx2z             9.330503     500.870985
                         19       1   19fxy2             9.330503     500.870985
                         19       1   19fxyz             9.330503     867.533994
                         19       1   19fxz2             9.330503     500.870985
                         19       1   19fy3              9.330503     223.996314
                         19       1   19fy2z             9.330503     500.870985
                         19       1   19fyz2             9.330503     500.870985
                         19       1   19fz3              9.330503     223.996314

       Atomic covalent radius [Angstrom]:                                  0.770

       Atomic van der Waals radius [Angstrom]:                             1.700

     GTH Potential information for                                       GTH-PBE

       Description:                       Goedecker-Teter-Hutter pseudopotential
                                           Goedecker et al., PRB 54, 1703 (1996)
                                          Hartwigsen et al., PRB 58, 3641 (1998)
                                                      Krack, TCA 114, 145 (2005)

       Gaussian exponent of the core charge distribution:               4.364419
       Electronic configuration (s p d ...):                               2   2

       Parameters of the local part of the GTH pseudopotential:

                          rloc        C1          C2          C3          C4
                        0.338471   -8.803674    1.339211

       Parameters of the non-local part of the GTH pseudopotential:

                   l      r(l)      h(i,j,l)

                   0    0.302576    9.622487
                   1    0.291507

  2. Atomic kind: O                                     Number of atoms:       1

     Orbital Basis Set                                        aug-SZV-MOLOPT-GTH

       Number of orbital shell sets:                                           1
       Number of orbital shells:                                               5
       Number of primitive Cartesian functions:                                6
       Number of Cartesian basis functions:                                   14
       Number of spherical basis functions:                                   13
       Norm type:                                                              2

       Normalised Cartesian orbitals:

                        Set   Shell   Orbital            Exponent    Coefficient

                          1       1    2s                0.162492      -0.033677
                                                         0.200000       0.000000
                                                         0.496955      -0.274061
                                                         1.388401      -0.301641
                                                         3.849621       0.208811
                                                        10.389228       0.396646

                          1       2    3s                0.162492      -0.361060
                                                         0.200000       0.497815
                                                         0.496955       0.202465
                                                         1.388401       0.095383
                                                         3.849621       0.000000
                                                        10.389228       0.000000

                          1       3    3px               0.162492      -0.035541
                                                         0.200000       0.000000
                                                         0.496955      -0.253695
                                                         1.388401      -0.761951
                                                         3.849621      -1.371928
                                                        10.389228      -1.530415
                          1       3    3py               0.162492      -0.035541
                                                         0.200000       0.000000
                                                         0.496955      -0.253695
                                                         1.388401      -0.761951
                                                         3.849621      -1.371928
                                                        10.389228      -1.530415
                          1       3    3pz               0.162492      -0.035541
                                                         0.200000       0.000000
                                                         0.496955      -0.253695
                                                         1.388401      -0.761951
                                                         3.849621      -1.371928
                                                        10.389228      -1.530415

                          1       4    4px               0.162492       0.038040
                                                         0.200000       0.066991
                                                         0.496955       0.157162
                                                         1.388401       0.636473
                                                         3.849621       0.000000
                                                        10.389228       0.000000
                          1       4    4py               0.162492       0.038040
                                                         0.200000       0.066991
                                                         0.496955       0.157162
                                                         1.388401       0.636473
                                                         3.849621       0.000000
                                                        10.389228       0.000000
                          1       4    4pz               0.162492       0.038040
                                                         0.200000       0.066991
                                                         0.496955       0.157162
                                                         1.388401       0.636473
                                                         3.849621       0.000000
                                                        10.389228       0.000000

                          1       5    4dx2              0.162492      -0.093119
                                                         0.200000       0.067810
                                                         0.496955      -0.233391
                                                         1.388401       0.119464
                                                         3.849621       0.000000
                                                        10.389228       0.000000
                          1       5    4dxy              0.162492      -0.161287
                                                         0.200000       0.117451
                                                         0.496955      -0.404245
                                                         1.388401       0.206919
                                                         3.849621       0.000000
                                                        10.389228       0.000000
                          1       5    4dxz              0.162492      -0.161287
                                                         0.200000       0.117451
                                                         0.496955      -0.404245
                                                         1.388401       0.206919
                                                         3.849621       0.000000
                                                        10.389228       0.000000
                          1       5    4dy2              0.162492      -0.093119
                                                         0.200000       0.067810
                                                         0.496955      -0.233391
                                                         1.388401       0.119464
                                                         3.849621       0.000000
                                                        10.389228       0.000000
                          1       5    4dyz              0.162492      -0.161287
                                                         0.200000       0.117451
                                                         0.496955      -0.404245
                                                         1.388401       0.206919
                                                         3.849621       0.000000
                                                        10.389228       0.000000
                          1       5    4dz2              0.162492      -0.093119
                                                         0.200000       0.067810
                                                         0.496955      -0.233391
                                                         1.388401       0.119464
                                                         3.849621       0.000000
                                                        10.389228       0.000000

     RI Auxiliary Basis Set             RI_aug-SZV-MOLOPT-GTH_N_RI_078_s_p_d_f_g

       Number of orbital shell sets:                                          22
       Number of orbital shells:                                              22
       Number of primitive Cartesian functions:                               22
       Number of Cartesian basis functions:                                   95
       Number of spherical basis functions:                                   78
       Norm type:                                                              2

       Normalised Cartesian orbitals:

                        Set   Shell   Orbital            Exponent    Coefficient

                          1       1    1s                0.401594       0.359543

                          2       1    2s                0.755894       0.577771

                          3       1    3s                1.416722       0.925494

                          4       1    4s                2.650205       1.480368

                          5       1    5s                4.956718       2.367586

                          6       1    6s                9.262290       3.783980

                          7       1    7s               17.311568       6.048705

                          8       1    8px               0.366288       0.406180
                          8       1    8py               0.366288       0.406180
                          8       1    8pz               0.366288       0.406180

                          9       1    9px               0.838631       1.143941
                          9       1    9py               0.838631       1.143941
                          9       1    9pz               0.838631       1.143941

                         10       1   10px               1.790515       2.952314
                         10       1   10py               1.790515       2.952314
                         10       1   10pz               1.790515       2.952314

                         11       1   11px               3.856077       7.702331
                         11       1   11py               3.856077       7.702331
                         11       1   11pz               3.856077       7.702331

                         12       1   12px               8.163201      19.668248
                         12       1   12py               8.163201      19.668248
                         12       1   12pz               8.163201      19.668248

                         13       1   13px              17.241147      50.078092
                         13       1   13py              17.241147      50.078092
                         13       1   13pz              17.241147      50.078092

                         14       1   14dx2              0.406104       0.340035
                         14       1   14dxy              0.406104       0.588958
                         14       1   14dxz              0.406104       0.588958
                         14       1   14dy2              0.406104       0.340035
                         14       1   14dyz              0.406104       0.588958
                         14       1   14dz2              0.406104       0.340035

                         15       1   15dx2              1.037680       1.755985
                         15       1   15dxy              1.037680       3.041455
                         15       1   15dxz              1.037680       3.041455
                         15       1   15dy2              1.037680       1.755985
                         15       1   15dyz              1.037680       3.041455
                         15       1   15dz2              1.037680       1.755985

                         16       1   16dx2              2.651658       9.069121
                         16       1   16dxy              2.651658      15.708178
                         16       1   16dxz              2.651658      15.708178
                         16       1   16dy2              2.651658       9.069121
                         16       1   16dyz              2.651658      15.708178
                         16       1   16dz2              2.651658       9.069121

                         17       1   17dx2              6.778565      46.870600
                         17       1   17dxy              6.778565      81.182261
                         17       1   17dxz              6.778565      81.182261
                         17       1   17dy2              6.778565      46.870600
                         17       1   17dyz              6.778565      81.182261
                         17       1   17dz2              6.778565      46.870600

                         18       1   18dx2             17.317084     241.958178
                         18       1   18dxy             17.317084     419.083857
                         18       1   18dxz             17.317084     419.083857
                         18       1   18dy2             17.317084     241.958178
                         18       1   18dyz             17.317084     419.083857
                         18       1   18dz2             17.317084     241.958178

                         19       1   19fx3              0.445310       0.238476
                         19       1   19fx2y             0.445310       0.533248
                         19       1   19fx2z             0.445310       0.533248
                         19       1   19fxy2             0.445310       0.533248
                         19       1   19fxyz             0.445310       0.923612
                         19       1   19fxz2             0.445310       0.533248
                         19       1   19fy3              0.445310       0.238476
                         19       1   19fy2z             0.445310       0.533248
                         19       1   19fyz2             0.445310       0.533248
                         19       1   19fz3              0.445310       0.238476

                         20       1   20fx3              1.340594       2.846906
                         20       1   20fx2y             1.340594       6.365876
                         20       1   20fx2z             1.340594       6.365876
                         20       1   20fxy2             1.340594       6.365876
                         20       1   20fxyz             1.340594      11.026020
                         20       1   20fxz2             1.340594       6.365876
                         20       1   20fy3              1.340594       2.846906
                         20       1   20fy2z             1.340594       6.365876
                         20       1   20fyz2             1.340594       6.365876
                         20       1   20fz3              1.340594       2.846906

                         21       1   21fx3              4.941598      53.598921
                         21       1   21fx2y             4.941598     119.850830
                         21       1   21fx2z             4.941598     119.850830
                         21       1   21fxy2             4.941598     119.850830
                         21       1   21fxyz             4.941598     207.587727
                         21       1   21fxz2             4.941598     119.850830
                         21       1   21fy3              4.941598      53.598921
                         21       1   21fy2z             4.941598     119.850830
                         21       1   21fyz2             4.941598     119.850830
                         21       1   21fz3              4.941598      53.598921

                         22       1   22fx3             17.301792     898.792404
                         22       1   22fx2y            17.301792    2009.760913
                         22       1   22fx2z            17.301792    2009.760913
                         22       1   22fxy2            17.301792    2009.760913
                         22       1   22fxyz            17.301792    3481.008013
                         22       1   22fxz2            17.301792    2009.760913
                         22       1   22fy3             17.301792     898.792404
                         22       1   22fy2z            17.301792    2009.760913
                         22       1   22fyz2            17.301792    2009.760913
                         22       1   22fz3             17.301792     898.792404

       Atomic covalent radius [Angstrom]:                                  0.730

       Atomic van der Waals radius [Angstrom]:                             1.520

     GTH Potential information for                                       GTH-PBE

       Description:                       Goedecker-Teter-Hutter pseudopotential
                                           Goedecker et al., PRB 54, 1703 (1996)
                                          Hartwigsen et al., PRB 58, 3641 (1998)
                                                      Krack, TCA 114, 145 (2005)

       Gaussian exponent of the core charge distribution:               8.360253
       Electronic configuration (s p d ...):                               2   4

       Parameters of the local part of the GTH pseudopotential:

                          rloc        C1          C2          C3          C4
                        0.244554  -16.667215    2.487311

       Parameters of the non-local part of the GTH pseudopotential:

                   l      r(l)      h(i,j,l)

                   0    0.220956   18.337458
                   1    0.211332


 MOLECULE KIND INFORMATION


 All atoms are their own molecule, skipping detailed information


 TOTAL NUMBERS AND MAXIMUM NUMBERS

  Total number of            - Atomic kinds:                                   2
                             - Atoms:                                          2
                             - Shell sets:                                     2
                             - Shells:                                        10
                             - Primitive Cartesian functions:                 12
                             - Cartesian basis functions:                     28
                             - Spherical basis functions:                     26

  Maximum angular momentum of- Orbital basis functions:                        2
                             - Local part of the GTH pseudopotential:          2
                             - Non-local part of the GTH pseudopotential:      0


 MODULE QUICKSTEP: ATOMIC COORDINATES IN ANGSTROM

   Atom Kind Element         X             Y             Z       Z(eff)     Mass
      1    1 C     6      4.358500      5.000000      5.000000   4.0000  12.0107
      2    2 O     8      5.641500      5.000000      5.000000   6.0000  15.9994



 SCF PARAMETERS         Density guess:                                   RESTART
                        --------------------------------------------------------
                        max_scf:                                             200
                        max_scf_history:                                       0
                        max_diis:                                              4
                        --------------------------------------------------------
                        eps_scf:                                        1.00E-09
                        eps_scf_history:                                0.00E+00
                        eps_diis:                                       1.00E-01
                        eps_eigval:                                     1.00E-05
                        --------------------------------------------------------
                        level_shift [a.u.]:                             0.000000
                        added MOs                                        21    0
                        --------------------------------------------------------
                        Mixing method:                              PULAY_MIXING
                                                charge density mixing in g-space
                        --------------------------------------------------------
                        No outer SCF

 PW_GRID| Information for grid number                                          1
 PW_GRID| Grid distributed over                                     4 processors
 PW_GRID| Real space group dimensions                                     4    1
 PW_GRID| the grid is blocked:                                                NO
 PW_GRID| Cutoff [a.u.]                                                    200.0
 PW_GRID| spherical cutoff:                                                   NO
 PW_GRID|   Bounds   1            -62      62                Points:         125
 PW_GRID|   Bounds   2            -62      62                Points:         125
 PW_GRID|   Bounds   3            -62      62                Points:         125
 PW_GRID| Volume element (a.u.^3)  0.3455E-02     Volume (a.u.^3)      6748.3346
 PW_GRID| Grid span                                                    FULLSPACE
 PW_GRID|   Distribution                         Average         Max         Min
 PW_GRID|   G-Vectors                           488281.2      488375      488250
 PW_GRID|   G-Rays                                3906.2        3907        3906
 PW_GRID|   Real Space Points                   488281.2      500000      484375

 PW_GRID| Information for grid number                                          2
 PW_GRID| Number of the reference grid                                         1
 PW_GRID| Grid distributed over                                     4 processors
 PW_GRID| Real space group dimensions                                     4    1
 PW_GRID| the grid is blocked:                                                NO
 PW_GRID| Cutoff [a.u.]                                                     66.7
 PW_GRID| spherical cutoff:                                                   NO
 PW_GRID|   Bounds   1            -36      35                Points:          72
 PW_GRID|   Bounds   2            -36      35                Points:          72
 PW_GRID|   Bounds   3            -36      35                Points:          72
 PW_GRID| Volume element (a.u.^3)  0.1808E-01     Volume (a.u.^3)      6748.3346
 PW_GRID| Grid span                                                    FULLSPACE
 PW_GRID|   Distribution                         Average         Max         Min
 PW_GRID|   G-Vectors                            93312.0       93384       93240
 PW_GRID|   G-Rays                                1296.0        1297        1295
 PW_GRID|   Real Space Points                    93312.0       93312       93312

 PW_GRID| Information for grid number                                          3
 PW_GRID| Number of the reference grid                                         1
 PW_GRID| Grid distributed over                                     4 processors
 PW_GRID| Real space group dimensions                                     4    1
 PW_GRID| the grid is blocked:                                                NO
 PW_GRID| Cutoff [a.u.]                                                     22.2
 PW_GRID| spherical cutoff:                                                   NO
 PW_GRID|   Bounds   1            -22      22                Points:          45
 PW_GRID|   Bounds   2            -22      22                Points:          45
 PW_GRID|   Bounds   3            -22      22                Points:          45
 PW_GRID| Volume element (a.u.^3)  0.7406E-01     Volume (a.u.^3)      6748.3346
 PW_GRID| Grid span                                                    FULLSPACE
 PW_GRID|   Distribution                         Average         Max         Min
 PW_GRID|   G-Vectors                            22781.2       22905       22680
 PW_GRID|   G-Rays                                 506.2         509         504
 PW_GRID|   Real Space Points                    22781.2       24300       22275

 PW_GRID| Information for grid number                                          4
 PW_GRID| Number of the reference grid                                         1
 PW_GRID| Grid distributed over                                     4 processors
 PW_GRID| Real space group dimensions                                     4    1
 PW_GRID| the grid is blocked:                                                NO
 PW_GRID| Cutoff [a.u.]                                                      7.4
 PW_GRID| spherical cutoff:                                                   NO
 PW_GRID|   Bounds   1            -12      11                Points:          24
 PW_GRID|   Bounds   2            -12      11                Points:          24
 PW_GRID|   Bounds   3            -12      11                Points:          24
 PW_GRID| Volume element (a.u.^3)  0.4882         Volume (a.u.^3)      6748.3346
 PW_GRID| Grid span                                                    FULLSPACE
 PW_GRID|   Distribution                         Average         Max         Min
 PW_GRID|   G-Vectors                             3456.0        3480        3432
 PW_GRID|   G-Rays                                 144.0         145         143
 PW_GRID|   Real Space Points                     3456.0        3456        3456

 POISSON| Solver                                                         WAVELET
 POISSON| Wavelet| Scaling function                                           40
 POISSON| Periodicity                                                       NONE

 RS_GRID| Information for grid number                                          1
 RS_GRID|   Bounds   1            -62      62                Points:         125
 RS_GRID|   Bounds   2            -62      62                Points:         125
 RS_GRID|   Bounds   3            -62      62                Points:         125
 RS_GRID| Real space fully replicated
 RS_GRID| Group size                                                           1

 RS_GRID| Information for grid number                                          2
 RS_GRID|   Bounds   1            -36      35                Points:          72
 RS_GRID|   Bounds   2            -36      35                Points:          72
 RS_GRID|   Bounds   3            -36      35                Points:          72
 RS_GRID| Real space fully replicated
 RS_GRID| Group size                                                           1

 RS_GRID| Information for grid number                                          3
 RS_GRID|   Bounds   1            -22      22                Points:          45
 RS_GRID|   Bounds   2            -22      22                Points:          45
 RS_GRID|   Bounds   3            -22      22                Points:          45
 RS_GRID| Real space fully replicated
 RS_GRID| Group size                                                           1

 RS_GRID| Information for grid number                                          4
 RS_GRID|   Bounds   1            -12      11                Points:          24
 RS_GRID|   Bounds   2            -12      11                Points:          24
 RS_GRID|   Bounds   3            -12      11                Points:          24
 RS_GRID| Real space fully replicated
 RS_GRID| Group size                                                           1

 Number of electrons:                                                         10
 Number of occupied orbitals:                                                  5
 Number of molecular orbitals:                                                26

 Number of orbital functions:                                                 26
 Number of independent orbital functions:                                     26

 Extrapolation method: initial_guess


 SCF WAVEFUNCTION OPTIMIZATION

  Step     Update method      Time    Convergence         Total energy    Change
  ------------------------------------------------------------------------------
     1 NoMix/Diag. 0.40E+00    1.2     2.0124E-09       -21.6180248829 -2.16E+01
     2 Pulay/Diag. 0.40E+00    1.1     2.8078E-09       -21.6180248796  3.37E-09
     3 Pulay/Diag. 0.40E+00    1.1     1.9441E-09       -21.6180248855 -5.98E-09
     4 Pulay/Diag. 0.40E+00    1.1     1.2933E-09       -21.6180248813  4.25E-09
     5 Pulay/Diag. 0.40E+00    1.1     9.0021E-10       -21.6180248841 -2.82E-09

  *** SCF run converged in     5 steps ***


  Electronic density on regular grids:        -10.0000000008       -0.0000000008
  Core density on regular grids:                9.9999999995       -0.0000000005
  Total charge density on r-space grids:       -0.0000000013
  Total charge density g-space grids:          -0.0000000013

  Overlap energy of the core charge distribution:               0.00000006326961
  Self energy of the core charge distribution:                -54.86121500576408
  Core Hamiltonian energy:                                     15.08850685760170
  Hartree energy:                                              23.10575822824067
  Exchange-correlation energy:                                 -4.95107496998308

  Total energy:                                               -21.61802488410347

 !-----------------------------------------------------------------------------!
                     Mulliken Population Analysis

 #  Atom  Element  Kind  Atomic population                           Net charge
       1     C        1          3.699994                              0.300006
       2     O        2          6.300006                             -0.300006
 # Total charge                             10.000000                 -0.000000

 !-----------------------------------------------------------------------------!

 !-----------------------------------------------------------------------------!
                           Hirshfeld Charges

  #Atom  Element  Kind  Ref Charge     Population                    Net charge
      1       C      1       4.000          3.759                         0.241
      2       O      2       6.000          6.239                        -0.239

  Total Charge                                                            0.003
 !-----------------------------------------------------------------------------!
  
 -------------------------------------------------------------------------------
 -                                                                             -
 -                          BANDSTRUCTURE CALCULATION                          -
 -                                                                             -
 -------------------------------------------------------------------------------
  
 Number of occupied molecular orbitals (MOs) = Number of occupied bands        5
 Number of unoccupied (= virtual) MOs = Number of unoccupied bands            21
 Number of Gaussian basis functions for MOs                                   26
 K-point mesh for the density of states (DOS) and the self-energy      1   1   1
  
 -------------------------------------------------------------------------------
 -                                                                             -
 -                              GW CALCULATION                                 -
 -                                                                             -
 -------------------------------------------------------------------------------
  
 Input: Number of time/freq. points                                           30
 Input: Filter threshold for sparse tensor operations                    1.0E-08
 Apply Hedin shift                                                             F
  
 Number of auxiliary Gaussian basis functions for χ, ε, W                    145
 Cutoff radius for the truncated Coulomb operator in Σ^x:               2645.9 Å
 Cutoff radius for the truncated Coulomb operator in RI metric:            3.0 Å
 Regularization parameter of RI                                          0.0E+00
 Lattice sum size for V(k):                                                    3
  
 K-point mesh 1 for χ, ε, W                                            1   1   1
 K-point mesh 2 for χ, ε, W (for k-point extrapolation of W)           1   1   1
 Approximate the k-point extrapolation                                         F
 Group size for tensor operations                                              4
 The requested group size is > 1 which can lead to bad performance.
 Using more memory per MPI process might improve performance.
 (Also increase MEMORY_PER_PROC when using more memory per process.)
 
 Computed 3-center integrals (µν|P), execution time                        0.2 s
 Percentage of non-zero (µν|P)                                         100.000 %
 Max. distance between µ,ν in non-zero (µν|P)                              1.3 A
 Required memory if storing all 3-center integrals (µν|P)                   0 GB
 
 Number of i and j atoms in M_λνP(τ), N_νλQ(τ):                               36
 Number of inner loop atoms for µ in M_λνP = sum_µ (µν|P) G_µλ                 2
 
 SCF direct band gap (eV)                                                   5.86
 Max. SCF eigval diff. (eV)                                               203.50
 E-Range for minimax grid                                                  34.73
 Number of Padé parameters for analytic continuation:                         16
 
 
 Read W^MIC(iτ) from file for time point      1 / 30,    Execution time    0.0 s
 Read W^MIC(iτ) from file for time point      2 / 30,    Execution time    0.0 s
 Read W^MIC(iτ) from file for time point      3 / 30,    Execution time    0.0 s
 Read W^MIC(iτ) from file for time point      4 / 30,    Execution time    0.0 s
 Read W^MIC(iτ) from file for time point      5 / 30,    Execution time    0.0 s
 Read W^MIC(iτ) from file for time point      6 / 30,    Execution time    0.0 s
 Read W^MIC(iτ) from file for time point      7 / 30,    Execution time    0.0 s
 Read W^MIC(iτ) from file for time point      8 / 30,    Execution time    0.0 s
 Read W^MIC(iτ) from file for time point      9 / 30,    Execution time    0.0 s
 Read W^MIC(iτ) from file for time point     10 / 30,    Execution time    0.0 s
 Read W^MIC(iτ) from file for time point     11 / 30,    Execution time    0.0 s
 Read W^MIC(iτ) from file for time point     12 / 30,    Execution time    0.0 s
 Read W^MIC(iτ) from file for time point     13 / 30,    Execution time    0.0 s
 Read W^MIC(iτ) from file for time point     14 / 30,    Execution time    0.0 s
 Read W^MIC(iτ) from file for time point     15 / 30,    Execution time    0.0 s
 Read W^MIC(iτ) from file for time point     16 / 30,    Execution time    0.0 s
 Read W^MIC(iτ) from file for time point     17 / 30,    Execution time    0.0 s
 Read W^MIC(iτ) from file for time point     18 / 30,    Execution time    0.0 s
 Read W^MIC(iτ) from file for time point     19 / 30,    Execution time    0.0 s
 Read W^MIC(iτ) from file for time point     20 / 30,    Execution time    0.0 s
 Read W^MIC(iτ) from file for time point     21 / 30,    Execution time    0.0 s
 Read W^MIC(iτ) from file for time point     22 / 30,    Execution time    0.0 s
 Read W^MIC(iτ) from file for time point     23 / 30,    Execution time    0.0 s
 Read W^MIC(iτ) from file for time point     24 / 30,    Execution time    0.0 s
 Read W^MIC(iτ) from file for time point     25 / 30,    Execution time    0.0 s
 Read W^MIC(iτ) from file for time point     26 / 30,    Execution time    0.0 s
 Read W^MIC(iτ) from file for time point     27 / 30,    Execution time    0.0 s
 Read W^MIC(iτ) from file for time point     28 / 30,    Execution time    0.0 s
 Read W^MIC(iτ) from file for time point     29 / 30,    Execution time    0.0 s
 Read W^MIC(iτ) from file for time point     30 / 30,    Execution time    0.0 s
 
 Read W^MIC(f=0) from file for freq. point    1 /  1,    Execution time    0.0 s
 Read Σ^c(iτ,k=0) from file for time point    1 / 30,    Execution time    0.0 s
 Read Σ^c(iτ,k=0) from file for time point    2 / 30,    Execution time    0.0 s
 Read Σ^c(iτ,k=0) from file for time point    3 / 30,    Execution time    0.0 s
 Read Σ^c(iτ,k=0) from file for time point    4 / 30,    Execution time    0.0 s
 Read Σ^c(iτ,k=0) from file for time point    5 / 30,    Execution time    0.0 s
 Read Σ^c(iτ,k=0) from file for time point    6 / 30,    Execution time    0.0 s
 Read Σ^c(iτ,k=0) from file for time point    7 / 30,    Execution time    0.0 s
 Read Σ^c(iτ,k=0) from file for time point    8 / 30,    Execution time    0.0 s
 Read Σ^c(iτ,k=0) from file for time point    9 / 30,    Execution time    0.0 s
 Read Σ^c(iτ,k=0) from file for time point   10 / 30,    Execution time    0.0 s
 Read Σ^c(iτ,k=0) from file for time point   11 / 30,    Execution time    0.0 s
 Read Σ^c(iτ,k=0) from file for time point   12 / 30,    Execution time    0.0 s
 Read Σ^c(iτ,k=0) from file for time point   13 / 30,    Execution time    0.0 s
 Read Σ^c(iτ,k=0) from file for time point   14 / 30,    Execution time    0.0 s
 Read Σ^c(iτ,k=0) from file for time point   15 / 30,    Execution time    0.0 s
 Read Σ^c(iτ,k=0) from file for time point   16 / 30,    Execution time    0.0 s
 Read Σ^c(iτ,k=0) from file for time point   17 / 30,    Execution time    0.0 s
 Read Σ^c(iτ,k=0) from file for time point   18 / 30,    Execution time    0.0 s
 Read Σ^c(iτ,k=0) from file for time point   19 / 30,    Execution time    0.0 s
 Read Σ^c(iτ,k=0) from file for time point   20 / 30,    Execution time    0.0 s
 Read Σ^c(iτ,k=0) from file for time point   21 / 30,    Execution time    0.0 s
 Read Σ^c(iτ,k=0) from file for time point   22 / 30,    Execution time    0.0 s
 Read Σ^c(iτ,k=0) from file for time point   23 / 30,    Execution time    0.0 s
 Read Σ^c(iτ,k=0) from file for time point   24 / 30,    Execution time    0.0 s
 Read Σ^c(iτ,k=0) from file for time point   25 / 30,    Execution time    0.0 s
 Read Σ^c(iτ,k=0) from file for time point   26 / 30,    Execution time    0.0 s
 Read Σ^c(iτ,k=0) from file for time point   27 / 30,    Execution time    0.0 s
 Read Σ^c(iτ,k=0) from file for time point   28 / 30,    Execution time    0.0 s
 Read Σ^c(iτ,k=0) from file for time point   29 / 30,    Execution time    0.0 s
 Read Σ^c(iτ,k=0) from file for time point   30 / 30,    Execution time    0.0 s
 
 Sparsity of Σ^c(iτ,k=0): Percentage of skipped atom pairs:                0.0 %
 Retaining nl_3c for RTBSE

 
 SCF valence band maximum (eV):                                           -9.186
 SCF conduction band minimum (eV):                                        -3.326
 SCF indirect band gap (eV):                                               5.860
 SCF direct band gap (eV):                                                 5.860
 
 G0W0 valence band maximum (eV):                                         -12.829
 G0W0 conduction band minimum (eV):                                        2.198
 G0W0 indirect band gap (eV):                                             15.026
 G0W0 direct band gap (eV):                                               15.026
 
 Hartree-Fock with SCF orbitals valence band maximum (eV):               -14.562
 Hartree-Fock with SCF orbitals conduction band minimum (eV)               3.044
 Hartree-Fock with SCF orbitals indirect band gap (eV):                   17.606
 Hartree-Fock with SCF orbitals direct band gap (eV):                     17.606

 ENERGY| Total FORCE_EVAL ( QS ) energy [hartree]            -21.618024884103466
 === Start time :    2.9999999999999996     
 === Start time :    2.9999999999999996     
 === Start time :    2.9999999999999996     
 === Start time :    2.9999999999999996     
 RTBSE| Approximate size of the 3c integrals                       0.75E+000 MiB
 
 /-----------------------------------------------------------------------------\
 |                                                                             |
 |                    Real Time Bethe-Salpeter Propagation                     |
 |                                                                             |
 \-----------------------------------------------------------------------------/
 
 Exponential method                                                          BCH
 Reference Hamiltonian                                                      G0W0
 Apply delta pulse                                                             F

 RTBSE| Starting from timestep                      4376, delta kick NOT applied

 -------------------------------------------------------------------------------
 -                                                                             -
 -                                DBCSR STATISTICS                             -
 -                                                                             -
 -------------------------------------------------------------------------------
 COUNTER                                    TOTAL       BLAS       SMM       ACC
 flops    13 x    26 x    13                35152     100.0%      0.0%      0.0%     
 flops    13 x    13 x    26               158184     100.0%      0.0%      0.0%     
 flops    67 x    64 x    67               574592     100.0%      0.0%      0.0%     
 flops    67 x    64 x    78               668928     100.0%      0.0%      0.0%     
 flops    78 x    64 x    67               668928     100.0%      0.0%      0.0%     
 flops    67 x    81 x    67               727218     100.0%      0.0%      0.0%     
 flops    78 x    64 x    78               778752     100.0%      0.0%      0.0%     
 flops    78 x    81 x    67               846612     100.0%      0.0%      0.0%     
 flops    67 x    81 x    78               846612     100.0%      0.0%      0.0%     
 flops    78 x    81 x    78               985608     100.0%      0.0%      0.0%     
 flops inhomo. stacks                           0       0.0%      0.0%      0.0%
 flops total                         6.290586E+06     100.0%      0.0%      0.0%
 flops max/rank                      1.902524E+06     100.0%      0.0%      0.0%
 matmuls inhomo. stacks                         0       0.0%      0.0%      0.0%
 matmuls total                                 30     100.0%      0.0%      0.0%
 number of processed stacks                    30     100.0%      0.0%      0.0%
 average stack size                                     1.0       0.0       0.0
 marketing flops                     6.144570E+06
 -------------------------------------------------------------------------------
 # multiplications                              8
 max memory usage/rank             461.164544E+06
 # max total images/rank                        1
 # max 3D layers                                1
 # MPI messages exchanged                      64
 MPI messages size (bytes):
  total size                       412.112000E+03
  min size                           0.000000E+00
  max size                          50.544000E+03
  average size                       6.439250E+03
 MPI breakdown and total messages size (bytes):
             size <=      128                  26                        0
       128 < size <=     8192                  30                    75712
      8192 < size <=    32768                   0                        0
     32768 < size <=   131072                   8                   336400
    131072 < size <=  4194304                   0                        0
   4194304 < size <= 16777216                   0                        0
  16777216 < size                               0                        0
 -------------------------------------------------------------------------------
 -                                                                             -
 -                      DBCSR MESSAGE PASSING PERFORMANCE                      -
 -                                                                             -
 -------------------------------------------------------------------------------
 ROUTINE             CALLS      AVE VOLUME [Bytes]
 MP_Bcast               11                     12.
 MP_Allreduce           87                     16.
 MP_Alltoall          1579                   1215.
 MP_ISend               64                   2166.
 MP_IRecv               64                   1438.
 -------------------------------------------------------------------------------

 -------------------------------------------------------------------------------
 -                                                                             -
 -                                DBM STATISTICS                               -
 -                                                                             -
 -------------------------------------------------------------------------------
    M  x    N  x    K                                          COUNT     PERCENT
    ?  x    ?  x    ?                                            144      50.00%
   ??  x  ???  x   ??                                             48      16.67%
   ??  x   ??  x  ???                                             24       8.33%
   ??  x   ??  x >999                                             24       8.33%
  ???  x   ??  x   ??                                             24       8.33%
 >999  x   ??  x   ??                                             24       8.33%
 -------------------------------------------------------------------------------
 Memory consumption                            Number of allocations  Size [MiB]
 Host                                                             15           1
 -------------------------------------------------------------------------------

 -------------------------------------------------------------------------------
 -                                                                             -
 -                                GRID STATISTICS                              -
 -                                                                             -
 -------------------------------------------------------------------------------
 LP    KERNEL             BACKEND                              COUNT     PERCENT
 4     collocate ortho    CPU                                    648      49.77%
 4     integrate ortho    CPU                                    648      49.77%
 0     collocate general  CPU                                      4       0.31%
 0     integrate general  CPU                                      2       0.15%
 -------------------------------------------------------------------------------

 MEMORY| Estimated peak process memory [MiB]                                 440

 -------------------------------------------------------------------------------
 ----                             MULTIGRID INFO                            ----
 -------------------------------------------------------------------------------
 count for grid        1:          28164          cutoff [a.u.]          200.00
 count for grid        2:          16366          cutoff [a.u.]           66.67
 count for grid        3:          13240          cutoff [a.u.]           22.22
 count for grid        4:           1554          cutoff [a.u.]            7.41
 total gridlevel count  :          59324

 -------------------------------------------------------------------------------
 -                                                                             -
 -                         MESSAGE PASSING PERFORMANCE                         -
 -                                                                             -
 -------------------------------------------------------------------------------

 ROUTINE             CALLS      AVE VOLUME [Bytes]
 MP_Group              153
 MP_Bcast              508                2091285.
 MP_Allreduce          764                    398.
 MP_Sync               106
 MP_Alltoall           203               13934776.
 MP_SendRecv            78                1454279.
 MP_ISendRecv           75                1352451.
 MP_Wait               189
 MP_comm_split          79
 MP_ISend              144                  25340.
 MP_IRecv              144                  25197.
 -------------------------------------------------------------------------------


 -------------------------------------------------------------------------------
 -                                                                             -
 -                           R E F E R E N C E S                               -
 -                                                                             -
 -------------------------------------------------------------------------------
 
 CP2K version 2025.1 (Development Version), the CP2K developers group (2025).
 CP2K is freely available from https://www.cp2k.org/ .
 
 M. Graml, K. Zollner, D. Hernangómez-Pérez, P. E. Faria Junior, J. Wilhelm.
 J. Chem. Theory Comput. 20, 2202-2208 (2024).
 Low-scaling GW algorithm applied to twisted transition-metal dichalcogenide 
 heterobilayers.
 https://doi.org/10.1021/acs.jctc.3c01230

 T. D. Kuehne, M. Iannuzzi, M. Del Ben, V. V. Rybkin, P. Seewald, F. Stein, T. 
 Laino, R. Z. Khaliullin, O. Schuett, F. Schiffmann, D. Golze, J. Wilhelm, S. 
 Chulkov, M. H. Bani-Hashemian, V. Weber, U. Borstnik, M. Taillefumier, A. S. 
 Jakobovits, A. Lazzaro, H. Pabst, T. Mueller, R. Schade, M. Guidon, S. 
 Andermatt, N. Holmberg, G. K. Schenter, A. Hehn, A. Bussy, F. Belleflamme, G. 
 Tabacchi, A. Gloess, M. Lass, I. Bethune, C. J. Mundy, C. Plessl, M. Watkins, 
 J. VandeVondele, M. Krack, J. Hutter.
 J. Chem. Phys. 152, 194103 (2020).
 CP2K: An electronic structure and molecular dynamics software package - 
 Quickstep: Efficient and accurate electronic structure calculations.
 https://doi.org/10.1063/5.0007045

 O. Schuett, P. Messmer, J. Hutter, J. VandeVondele.
 Electronic Structure Calculations on Graphics Processing Units, 173-190 (2016).
 GPU-Accelerated Sparse Matrix-Matrix Multiplication for Linear Scaling Density 
 Functional Theory.
 https://doi.org/10.1002/9781118670712.ch8

 J. Hutter, M. Iannuzzi, F. Schiffmann, J. VandeVondele.
 WIREs Comput Mol Sci. 4, 15-25 (2014).
 CP2K: atomistic simulations of condensed matter systems.
 https://doi.org/10.1002/wcms.1159

 U. Borstnik, J. VandeVondele, V. Weber, J. Hutter.
 Parallel Comput. 40, 47-58 (2014).
 Sparse matrix multiplication: The distributed block-compressed sparse row 
 library.
 https://doi.org/10.1016/j.parco.2014.03.012

 L. Genovese, T. Deutsch, S. Goedecker.
 J. Chem. Phys. 127, 054704 (2007).
 Efficient and accurate three-dimensional Poisson solver for surface problems.
 https://doi.org/10.1063/1.2754685

 J. VandeVondele, J. Hutter.
 J. Chem. Phys. 127, 114105 (2007).
 Gaussian basis sets for accurate calculations on molecular systems in gas and 
 condensed phases.
 https://doi.org/10.1063/1.2770708

 L. Genovese, T. Deutsch, A. Neelov, S. Goedecker, G. Beylkin.
 J. Chem. Phys. 125, 074105 (2006).
 Efficient solution of Poisson's equation with free boundary conditions.
 https://doi.org/10.1063/1.2335442

 J. VandeVondele, M. Krack, F. Mohamed, M. Parrinello, T. Chassaing, J. Hutter.
 Comput. Phys. Commun. 167, 103-128 (2005).
 QUICKSTEP: Fast and accurate density functional calculations using a mixed 
 Gaussian and plane waves approach.
 https://doi.org/10.1016/j.cpc.2004.12.014

 M. Krack.
 Theor. Chem. Acc. 114, 145-152 (2005).
 Pseudopotentials for H to Kr optimized for gradient-corrected 
 exchange-correlation functionals.
 https://doi.org/10.1007/s00214-005-0655-y

 M. Frigo, S. G. Johnson.
 Proc. IEEE 93, 216-231 (2005).
 The design and implementation of FFTW3.
 https://doi.org/10.1109/JPROC.2004.840301

 C. Hartwigsen, S. Goedecker, J. Hutter.
 Phys. Rev. B 58, 3641-3662 (1998).
 Relativistic separable dual-space Gaussian pseudopotentials from H to Rn.
 https://doi.org/10.1103/PhysRevB.58.3641

 G. Lippert, J. Hutter, M. Parrinello.
 Mol. Phys. 92, 477-487 (1997).
 A hybrid Gaussian and plane wave density functional scheme.
 https://doi.org/10.1080/002689797170220

 S. Goedecker, M. Teter, J. Hutter.
 Phys. Rev. B 54, 1703-1710 (1996).
 Separable dual-space Gaussian pseudopotentials.
 https://doi.org/10.1103/PhysRevB.54.1703

 J. P. Perdew, K. Burke, M. Ernzerhof.
 Phys. Rev. Lett. 77, 3865-3868 (1996).
 Generalized gradient approximation made simple.
 https://doi.org/10.1103/PhysRevLett.77.3865


 -------------------------------------------------------------------------------
 -                                                                             -
 -                                T I M I N G                                  -
 -                                                                             -
 -------------------------------------------------------------------------------
 SUBROUTINE                       CALLS  ASD         SELF TIME        TOTAL TIME
                                MAXIMUM       AVERAGE  MAXIMUM  AVERAGE  MAXIMUM
 CP2K                                 1  1.0    0.004    0.006   10.819   10.819
 run_propagation_bse                  1  2.0    0.005    0.020   10.593   10.610
 qs_energies                          1  3.0    0.000    0.000    7.091    7.094
 scf_env_do_scf                       1  4.0    0.000    0.000    5.957    5.958
 scf_env_do_scf_inner_loop            5  5.0    0.000    0.000    5.957    5.958
 qs_ks_build_kohn_sham_matrix         6  8.2    0.001    0.001    5.119    5.122
 qs_ks_update_qs_env                  5  6.0    0.000    0.000    4.723    4.727
 rebuild_ks_matrix                    5  7.0    0.000    0.000    4.723    4.725
 fft_wrap_pw1pw2                    112 10.9    0.002    0.002    4.151    4.265
 fft_wrap_pw1pw2_200                 76 12.1    0.175    0.179    4.039    4.156
 ft_simple                            9  3.0    3.448    3.462    3.448    3.462
 fft3d_ps                           112 12.9    1.930    2.057    2.913    3.028
 qs_vxc_create                        6  9.2    0.000    0.000    2.388    2.408
 xc_vxc_pw_create                     5 10.0    0.018    0.021    2.388    2.408
 xc_pw_derive                        30 12.0    0.000    0.000    1.792    1.869
 pw_poisson_solve                     6  9.2    0.144    0.147    1.794    1.797
 xc_pw_divergence                     5 11.0    0.000    0.000    1.202    1.292
 xc_rho_set_and_dset_create           5 11.0    0.019    0.022    1.146    1.225
 qs_rho_update_rho_low                6  6.0    0.000    0.000    1.022    1.022
 calculate_rho_elec                   6  7.0    0.008    0.008    1.022    1.022
 density_rs2pw                        6  8.0    0.000    0.000    0.893    0.905
 qs_energies_properties               1  4.0    0.000    0.000    0.765    0.768
 post_scf_bandstructure               1  5.0    0.000    0.000    0.765    0.768
 gw                                   1  6.0    0.000    0.000    0.760    0.761
 create_and_init_bs_env_for_gw        1  7.0    0.000    0.000    0.742    0.743
 x_to_yz                             60 14.2    0.378    0.392    0.588    0.636
 sum_up_and_integrate                 6  9.2    0.000    0.000    0.564    0.570
 integrate_v_rspace                   6 10.2    0.000    0.000    0.550    0.556
 potential_pw2rs                      6 11.2    0.001    0.001    0.544    0.548
 mp_alltoall_z22v                   112 14.9    0.429    0.519    0.429    0.519
 pw_gather_p                         52 12.6    0.453    0.468    0.453    0.468
 yz_to_x                             52 13.6    0.173    0.180    0.391    0.464
 pw_scatter_p                        60 13.2    0.433    0.454    0.433    0.454
 compute_V_xc                         1  8.0    0.000    0.000    0.396    0.396
 ps_wavelet_solve                     6 10.2    0.296    0.307    0.379    0.380
 gspace_mixing                        4  6.0    0.005    0.006    0.377    0.377
 pw_poisson_rebuild                   6 10.2    0.000    0.000    0.318    0.319
 ps_wavelet_create                    1 11.0    0.000    0.000    0.318    0.319
 RS_z_slice_distribution              1 12.0    0.299    0.307    0.318    0.319
 pw_derive                           48 12.3    0.274    0.288    0.274    0.288
 xc_functional_eval                   5 12.0    0.000    0.000    0.196    0.276
 pbe_lda_eval                         5 13.0    0.196    0.276    0.196    0.276
 init_scf_run                         1  4.0    0.000    0.000    0.218    0.219
 scf_env_initial_rho_setup            1  5.0    0.000    0.000    0.218    0.218
 -------------------------------------------------------------------------------

 The number of warnings for this run is : 0
 
 -------------------------------------------------------------------------------
  **** **** ******  **  PROGRAM ENDED AT                 2025-02-07 14:17:02.454
 ***** ** ***  *** **   PROGRAM RAN ON                              pc1022400703
 **    ****   ******    PROGRAM RAN BY                                  mas05075
 ***** **    ** ** **   PROGRAM PROCESS ID                                 24213
  **** **  *******  **  PROGRAM STOPPED IN /home/mas05075/Science/RTBSE/test_2nd
                                           _harmonic/CO/2/e_x/Results
