 DBCSR| CPU Multiplication driver                                           BLAS (U)
 DBCSR| Multrec recursion limit                                              512 (U)
 DBCSR| Multiplication stack size                                           1000 (D)
 DBCSR| Maximum elements for images                                    UNLIMITED (U)
 DBCSR| Multiplicative factor virtual images                                   1 (U)
 DBCSR| Use multiplication densification                                       T (D)
 DBCSR| Multiplication size stacks                                             3 (U)
 DBCSR| Use memory pool for CPU allocation                                     F (U)
 DBCSR| Number of 3D layers                                               SINGLE (U)
 DBCSR| Use MPI memory allocation                                              F (U)
 DBCSR| Use RMA algorithm                                                      F (U)
 DBCSR| Use Communication thread                                               T (U)
 DBCSR| Communication thread load                                             87 (D)
 DBCSR| MPI: My process id                                                     0
 DBCSR| MPI: Number of processes                                               4
 DBCSR| OMP: Current number of threads                                         1
 DBCSR| OMP: Max number of threads                                             1
 DBCSR| Split modifier for TAS multiplication algorithm                  1.0E+00 (U)


  **** **** ******  **  PROGRAM STARTED AT               2025-02-07 17:53:45.531
 ***** ** ***  *** **   PROGRAM STARTED ON                          pc1022400703
 **    ****   ******    PROGRAM STARTED BY                              mas05075
 ***** **    ** ** **   PROGRAM PROCESS ID                                 40894
  **** **  *******  **  PROGRAM STARTED IN /home/mas05075/Science/RTBSE/test_2nd
                                           _harmonic/CO/2/e_x/Results_1e12

 CP2K| version string:                 CP2K version 2025.1 (Development Version)
 CP2K| source code revision number:                                  git:26096ef
 CP2K| cp2kflags: omp libint fftw3 libxc parallel scalapack max_contr=4         
 CP2K| is freely available from                            https://www.cp2k.org/
 CP2K| Program compiled at                          Fri 31 Jan 15:01:24 CET 2025
 CP2K| Program compiled on                                          pc1022400703
 CP2K| Program compiled for                                             personal
 CP2K| Data directory path                     /home/mas05075/Software/CP2K/data
 CP2K| Input file name                                                 rtbse.inp

 GLOBAL| Force Environment number                                              1
 GLOBAL| Basis set file name             BASIS_GTH_MOLOPT_AUG_for_excited_states
 GLOBAL| Potential file name                                      GTH_POTENTIALS
 GLOBAL| MM Potential file name                                     MM_POTENTIAL
 GLOBAL| Coordinate file name                                      __STD_INPUT__
 GLOBAL| Method name                                                        CP2K
 GLOBAL| Project name                                                         CO
 GLOBAL| Run type                                                 RT_PROPAGATION
 GLOBAL| FFT library                                                       FFTW3
 GLOBAL| Diagonalization library                                       ScaLAPACK
 GLOBAL| DGEMM library                                                      BLAS
 GLOBAL| Orthonormality check for eigenvectors                          DISABLED
 GLOBAL| Matrix multiplication library                                 ScaLAPACK
 GLOBAL| All-to-all communication in single precision                          F
 GLOBAL| FFTs using library dependent lengths                                  F
 GLOBAL| Grid backend                                                       AUTO
 GLOBAL| Global print level                                               MEDIUM
 GLOBAL| MPI I/O enabled                                                       T
 GLOBAL| Total number of message passing processes                             4
 GLOBAL| Number of threads for this process                                    1
 GLOBAL| This output is from process                                           0
 GLOBAL| OpenMP stack size per thread (OMP_STACKSIZE)                    default
 GLOBAL| CPU model name                   AMD Ryzen 7 7730U with Radeon Graphics

 MEMORY| system memory details [Kb]
 MEMORY|                        rank 0           min           max       average
 MEMORY| MemTotal             39956452      39956452      39956452      39956452
 MEMORY| MemFree              32771392      32771392      32771392      32771392
 MEMORY| Buffers                210756        210756        210756        210756
 MEMORY| Cached                5455588       5455588       5455588       5455588
 MEMORY| Slab                   381184        381184        381184        381184
 MEMORY| SReclaimable           252028        252028        252028        252028
 MEMORY| MemLikelyFree        38689764      38689764      38689764      38689764


 *** Fundamental physical constants (SI units) ***

 *** Literature: B. J. Mohr and B. N. Taylor,
 ***             CODATA recommended values of the fundamental physical
 ***             constants: 2006, Web Version 5.1
 ***             http://physics.nist.gov/constants

 Speed of light in vacuum [m/s]                             2.99792458000000E+08
 Magnetic constant or permeability of vacuum [N/A**2]       1.25663706143592E-06
 Electric constant or permittivity of vacuum [F/m]          8.85418781762039E-12
 Planck constant (h) [J*s]                                  6.62606896000000E-34
 Planck constant (h-bar) [J*s]                              1.05457162825177E-34
 Elementary charge [C]                                      1.60217648700000E-19
 Electron mass [kg]                                         9.10938215000000E-31
 Electron g factor [ ]                                     -2.00231930436220E+00
 Proton mass [kg]                                           1.67262163700000E-27
 Fine-structure constant                                    7.29735253760000E-03
 Rydberg constant [1/m]                                     1.09737315685270E+07
 Avogadro constant [1/mol]                                  6.02214179000000E+23
 Boltzmann constant [J/K]                                   1.38065040000000E-23
 Atomic mass unit [kg]                                      1.66053878200000E-27
 Bohr radius [m]                                            5.29177208590000E-11

 *** Conversion factors ***

 [u] -> [a.u.]                                              1.82288848426455E+03
 [Angstrom] -> [Bohr] = [a.u.]                              1.88972613288564E+00
 [a.u.] = [Bohr] -> [Angstrom]                              5.29177208590000E-01
 [a.u.] -> [s]                                              2.41888432650478E-17
 [a.u.] -> [fs]                                             2.41888432650478E-02
 [a.u.] -> [J]                                              4.35974393937059E-18
 [a.u.] -> [N]                                              8.23872205491840E-08
 [a.u.] -> [K]                                              3.15774647902944E+05
 [a.u.] -> [kJ/mol]                                         2.62549961709828E+03
 [a.u.] -> [kcal/mol]                                       6.27509468713739E+02
 [a.u.] -> [Pa]                                             2.94210107994716E+13
 [a.u.] -> [bar]                                            2.94210107994716E+08
 [a.u.] -> [atm]                                            2.90362800883016E+08
 [a.u.] -> [eV]                                             2.72113838565563E+01
 [a.u.] -> [Hz]                                             6.57968392072181E+15
 [a.u.] -> [1/cm] (wave numbers)                            2.19474631370540E+05
 [a.u./Bohr**2] -> [1/cm]                                   5.14048714338585E+03
 

 CELL_TOP| Volume [angstrom^3]:                                      1000.000000
 CELL_TOP| Vector a [angstrom    10.000     0.000     0.000   |a| =    10.000000
 CELL_TOP| Vector b [angstrom     0.000    10.000     0.000   |b| =    10.000000
 CELL_TOP| Vector c [angstrom     0.000     0.000    10.000   |c| =    10.000000
 CELL_TOP| Angle (b,c), alpha [degree]:                                90.000000
 CELL_TOP| Angle (a,c), beta  [degree]:                                90.000000
 CELL_TOP| Angle (a,b), gamma [degree]:                                90.000000
 CELL_TOP| Numerically orthorhombic:                                         YES
 CELL_TOP| Periodicity                                                      NONE

 GENERATE|  Preliminary Number of Bonds generated:                             0
 GENERATE|  Achieved consistency in connectivity generation.

 CELL| Volume [angstrom^3]:                                          1000.000000
 CELL| Vector a [angstrom]:      10.000     0.000     0.000   |a| =    10.000000
 CELL| Vector b [angstrom]:       0.000    10.000     0.000   |b| =    10.000000
 CELL| Vector c [angstrom]:       0.000     0.000    10.000   |c| =    10.000000
 CELL| Angle (b,c), alpha [degree]:                                    90.000000
 CELL| Angle (a,c), beta  [degree]:                                    90.000000
 CELL| Angle (a,b), gamma [degree]:                                    90.000000
 CELL| Numerically orthorhombic:                                             YES
 CELL| Periodicity                                                          NONE

 CELL_REF| Volume [angstrom^3]:                                      1000.000000
 CELL_REF| Vector a [angstrom    10.000     0.000     0.000   |a| =    10.000000
 CELL_REF| Vector b [angstrom     0.000    10.000     0.000   |b| =    10.000000
 CELL_REF| Vector c [angstrom     0.000     0.000    10.000   |c| =    10.000000
 CELL_REF| Angle (b,c), alpha [degree]:                                90.000000
 CELL_REF| Angle (a,c), beta  [degree]:                                90.000000
 CELL_REF| Angle (a,b), gamma [degree]:                                90.000000
 CELL_REF| Numerically orthorhombic:                                         YES
 CELL_REF| Periodicity                                                      NONE

 *******************************************************************************
 *******************************************************************************
 **                                                                           **
 **     #####                         ##              ##                      **
 **    ##   ##            ##          ##              ##                      **
 **   ##     ##                       ##            ######                    **
 **   ##     ##  ##   ##  ##   #####  ##  ##   ####   ##    #####    #####    **
 **   ##     ##  ##   ##  ##  ##      ## ##   ##      ##   ##   ##  ##   ##   **
 **   ##  ## ##  ##   ##  ##  ##      ####     ###    ##   ######   ######    **
 **    ##  ###   ##   ##  ##  ##      ## ##      ##   ##   ##       ##        **
 **     #######   #####   ##   #####  ##  ##  ####    ##    #####   ##        **
 **           ##                                                    ##        **
 **                                                                           **
 **                                                ... make the atoms dance   **
 **                                                                           **
 **            Copyright (C) by CP2K developers group (2000-2025)             **
 **                      J. Chem. Phys. 152, 194103 (2020)                    **
 **                                                                           **
 *******************************************************************************

 DFT| Spin restricted Kohn-Sham (RKS) calculation                            RKS
 DFT| Multiplicity                                                             1
 DFT| Number of spin states                                                    1
 DFT| Charge                                                                   0
 DFT| Self-interaction correction (SIC)                                       NO
 DFT| Cutoffs: density                                              1.000000E-10
 DFT|          gradient                                             1.000000E-10
 DFT|          tau                                                  1.000000E-10
 DFT|          cutoff_smoothing_range                               0.000000E+00
 DFT| XC density smoothing                                                  NONE
 DFT| XC derivatives                                                          PW

 FUNCTIONAL| PBE:
 FUNCTIONAL| J.P.Perdew, K.Burke, M.Ernzerhof, Phys. Rev. Letter, vol. 77, n 18,
 FUNCTIONAL|  pp. 3865-3868, (1996) {spin unpolarized}                          


 QS| Method:                                                                 GPW
 QS| Density plane wave grid type                        NON-SPHERICAL FULLSPACE
 QS| Number of grid levels:                                                    4
 QS| Density cutoff [a.u.]:                                                200.0
 QS| Multi grid cutoff [a.u.]: 1) grid level                               200.0
 QS|                           2) grid level                                66.7
 QS|                           3) grid level                                22.2
 QS|                           4) grid level                                 7.4
 QS| Grid level progression factor:                                          3.0
 QS| Relative density cutoff [a.u.]:                                        25.0
 QS| Interaction thresholds: eps_pgf_orb:                                1.0E-05
 QS|                         eps_filter_matrix:                          0.0E+00
 QS|                         eps_core_charge:                            1.0E-12
 QS|                         eps_rho_gspace:                             1.0E-10
 QS|                         eps_rho_rspace:                             1.0E-10
 QS|                         eps_gvg_rspace:                             1.0E-05
 QS|                         eps_ppl:                                    1.0E-02
 QS|                         eps_ppnl:                                   1.0E-07


 ATOMIC KIND INFORMATION

  1. Atomic kind: C                                     Number of atoms:       1

     Orbital Basis Set                                        aug-SZV-MOLOPT-GTH

       Number of orbital shell sets:                                           1
       Number of orbital shells:                                               5
       Number of primitive Cartesian functions:                                6
       Number of Cartesian basis functions:                                   14
       Number of spherical basis functions:                                   13
       Norm type:                                                              2

       Normalised Cartesian orbitals:

                        Set   Shell   Orbital            Exponent    Coefficient

                          1       1    2s                0.128212      -0.022789
                                                         0.170000       0.000000
                                                         0.348157      -0.219794
                                                         0.769911      -0.209686
                                                         2.113016       0.213043
                                                         5.605331       0.322515

                          1       2    3s                0.128212      -0.011218
                                                         0.170000       0.211516
                                                         0.348157      -0.017308
                                                         0.769911       0.000059
                                                         2.113016       0.000000
                                                         5.605331       0.000000

                          1       3    3px               0.128212      -0.027849
                                                         0.170000       0.000000
                                                         0.348157      -0.139743
                                                         0.769911      -0.374851
                                                         2.113016      -0.642521
                                                         5.605331      -0.703879
                          1       3    3py               0.128212      -0.027849
                                                         0.170000       0.000000
                                                         0.348157      -0.139743
                                                         0.769911      -0.374851
                                                         2.113016      -0.642521
                                                         5.605331      -0.703879
                          1       3    3pz               0.128212      -0.027849
                                                         0.170000       0.000000
                                                         0.348157      -0.139743
                                                         0.769911      -0.374851
                                                         2.113016      -0.642521
                                                         5.605331      -0.703879

                          1       4    4px               0.128212      -0.292809
                                                         0.170000       0.260881
                                                         0.348157       0.116498
                                                         0.769911      -0.184036
                                                         2.113016       0.000000
                                                         5.605331       0.000000
                          1       4    4py               0.128212      -0.292809
                                                         0.170000       0.260881
                                                         0.348157       0.116498
                                                         0.769911      -0.184036
                                                         2.113016       0.000000
                                                         5.605331       0.000000
                          1       4    4pz               0.128212      -0.292809
                                                         0.170000       0.260881
                                                         0.348157       0.116498
                                                         0.769911      -0.184036
                                                         2.113016       0.000000
                                                         5.605331       0.000000

                          1       5    4dx2              0.128212       0.038324
                                                         0.170000       0.009466
                                                         0.348157       0.001927
                                                         0.769911       0.071948
                                                         2.113016       0.000000
                                                         5.605331       0.000000
                          1       5    4dxy              0.128212       0.066380
                                                         0.170000       0.016396
                                                         0.348157       0.003338
                                                         0.769911       0.124617
                                                         2.113016       0.000000
                                                         5.605331       0.000000
                          1       5    4dxz              0.128212       0.066380
                                                         0.170000       0.016396
                                                         0.348157       0.003338
                                                         0.769911       0.124617
                                                         2.113016       0.000000
                                                         5.605331       0.000000
                          1       5    4dy2              0.128212       0.038324
                                                         0.170000       0.009466
                                                         0.348157       0.001927
                                                         0.769911       0.071948
                                                         2.113016       0.000000
                                                         5.605331       0.000000
                          1       5    4dyz              0.128212       0.066380
                                                         0.170000       0.016396
                                                         0.348157       0.003338
                                                         0.769911       0.124617
                                                         2.113016       0.000000
                                                         5.605331       0.000000
                          1       5    4dz2              0.128212       0.038324
                                                         0.170000       0.009466
                                                         0.348157       0.001927
                                                         0.769911       0.071948
                                                         2.113016       0.000000
                                                         5.605331       0.000000

     RI Auxiliary Basis Set             RI_aug-SZV-MOLOPT-GTH_N_RI_067_s_p_d_f_g

       Number of orbital shell sets:                                          19
       Number of orbital shells:                                              19
       Number of primitive Cartesian functions:                               19
       Number of Cartesian basis functions:                                   81
       Number of spherical basis functions:                                   67
       Norm type:                                                              2

       Normalised Cartesian orbitals:

                        Set   Shell   Orbital            Exponent    Coefficient

                          1       1    1s                0.250759       0.252553

                          2       1    2s                0.495527       0.420930

                          3       1    3s                1.034440       0.731037

                          4       1    4s                2.235594       1.303031

                          5       1    5s                4.650070       2.256860

                          6       1    6s                9.267188       3.785481

                          7       1    7px               0.251679       0.254096
                          7       1    7py               0.251679       0.254096
                          7       1    7pz               0.251679       0.254096

                          8       1    8px               0.674377       0.871102
                          8       1    8py               0.674377       0.871102
                          8       1    8pz               0.674377       0.871102

                          9       1    9px               1.686181       2.738862
                          9       1    9py               1.686181       2.738862
                          9       1    9pz               1.686181       2.738862

                         10       1   10px               3.960243       7.963288
                         10       1   10py               3.960243       7.963288
                         10       1   10pz               3.960243       7.963288

                         11       1   11px               9.275007      23.071876
                         11       1   11py               9.275007      23.071876
                         11       1   11pz               9.275007      23.071876

                         12       1   12dx2              0.308978       0.210758
                         12       1   12dxy              0.308978       0.365043
                         12       1   12dxz              0.308978       0.365043
                         12       1   12dy2              0.308978       0.210758
                         12       1   12dyz              0.308978       0.365043
                         12       1   12dz2              0.308978       0.210758

                         13       1   13dx2              0.831349       1.191325
                         13       1   13dxy              0.831349       2.063436
                         13       1   13dxz              0.831349       2.063436
                         13       1   13dy2              0.831349       1.191325
                         13       1   13dyz              0.831349       2.063436
                         13       1   13dz2              0.831349       1.191325

                         14       1   14dx2              1.708593       4.202687
                         14       1   14dxy              1.708593       7.279267
                         14       1   14dxz              1.708593       7.279267
                         14       1   14dy2              1.708593       4.202687
                         14       1   14dyz              1.708593       7.279267
                         14       1   14dz2              1.708593       4.202687

                         15       1   15dx2              4.058751      19.102762
                         15       1   15dxy              4.058751      33.086954
                         15       1   15dxz              4.058751      33.086954
                         15       1   15dy2              4.058751      19.102762
                         15       1   15dyz              4.058751      33.086954
                         15       1   15dz2              4.058751      19.102762

                         16       1   16dx2              9.335269      82.059989
                         16       1   16dxy              9.335269     142.132070
                         16       1   16dxz              9.335269     142.132070
                         16       1   16dy2              9.335269      82.059989
                         16       1   16dyz              9.335269     142.132070
                         16       1   16dz2              9.335269      82.059989

                         17       1   17fx3              0.357831       0.145790
                         17       1   17fx2y             0.357831       0.325997
                         17       1   17fx2z             0.357831       0.325997
                         17       1   17fxy2             0.357831       0.325997
                         17       1   17fxyz             0.357831       0.564644
                         17       1   17fxz2             0.357831       0.325997
                         17       1   17fy3              0.357831       0.145790
                         17       1   17fy2z             0.357831       0.325997
                         17       1   17fyz2             0.357831       0.325997
                         17       1   17fz3              0.357831       0.145790

                         18       1   18fx3              1.699212       4.853011
                         18       1   18fx2y             1.699212      10.851663
                         18       1   18fx2z             1.699212      10.851663
                         18       1   18fxy2             1.699212      10.851663
                         18       1   18fxyz             1.699212      18.795632
                         18       1   18fxz2             1.699212      10.851663
                         18       1   18fy3              1.699212       4.853011
                         18       1   18fy2z             1.699212      10.851663
                         18       1   18fyz2             1.699212      10.851663
                         18       1   18fz3              1.699212       4.853011

                         19       1   19fx3              9.330503     223.996314
                         19       1   19fx2y             9.330503     500.870985
                         19       1   19fx2z             9.330503     500.870985
                         19       1   19fxy2             9.330503     500.870985
                         19       1   19fxyz             9.330503     867.533994
                         19       1   19fxz2             9.330503     500.870985
                         19       1   19fy3              9.330503     223.996314
                         19       1   19fy2z             9.330503     500.870985
                         19       1   19fyz2             9.330503     500.870985
                         19       1   19fz3              9.330503     223.996314

       Atomic covalent radius [Angstrom]:                                  0.770

       Atomic van der Waals radius [Angstrom]:                             1.700

     GTH Potential information for                                       GTH-PBE

       Description:                       Goedecker-Teter-Hutter pseudopotential
                                           Goedecker et al., PRB 54, 1703 (1996)
                                          Hartwigsen et al., PRB 58, 3641 (1998)
                                                      Krack, TCA 114, 145 (2005)

       Gaussian exponent of the core charge distribution:               4.364419
       Electronic configuration (s p d ...):                               2   2

       Parameters of the local part of the GTH pseudopotential:

                          rloc        C1          C2          C3          C4
                        0.338471   -8.803674    1.339211

       Parameters of the non-local part of the GTH pseudopotential:

                   l      r(l)      h(i,j,l)

                   0    0.302576    9.622487
                   1    0.291507

  2. Atomic kind: O                                     Number of atoms:       1

     Orbital Basis Set                                        aug-SZV-MOLOPT-GTH

       Number of orbital shell sets:                                           1
       Number of orbital shells:                                               5
       Number of primitive Cartesian functions:                                6
       Number of Cartesian basis functions:                                   14
       Number of spherical basis functions:                                   13
       Norm type:                                                              2

       Normalised Cartesian orbitals:

                        Set   Shell   Orbital            Exponent    Coefficient

                          1       1    2s                0.162492      -0.033677
                                                         0.200000       0.000000
                                                         0.496955      -0.274061
                                                         1.388401      -0.301641
                                                         3.849621       0.208811
                                                        10.389228       0.396646

                          1       2    3s                0.162492      -0.361060
                                                         0.200000       0.497815
                                                         0.496955       0.202465
                                                         1.388401       0.095383
                                                         3.849621       0.000000
                                                        10.389228       0.000000

                          1       3    3px               0.162492      -0.035541
                                                         0.200000       0.000000
                                                         0.496955      -0.253695
                                                         1.388401      -0.761951
                                                         3.849621      -1.371928
                                                        10.389228      -1.530415
                          1       3    3py               0.162492      -0.035541
                                                         0.200000       0.000000
                                                         0.496955      -0.253695
                                                         1.388401      -0.761951
                                                         3.849621      -1.371928
                                                        10.389228      -1.530415
                          1       3    3pz               0.162492      -0.035541
                                                         0.200000       0.000000
                                                         0.496955      -0.253695
                                                         1.388401      -0.761951
                                                         3.849621      -1.371928
                                                        10.389228      -1.530415

                          1       4    4px               0.162492       0.038040
                                                         0.200000       0.066991
                                                         0.496955       0.157162
                                                         1.388401       0.636473
                                                         3.849621       0.000000
                                                        10.389228       0.000000
                          1       4    4py               0.162492       0.038040
                                                         0.200000       0.066991
                                                         0.496955       0.157162
                                                         1.388401       0.636473
                                                         3.849621       0.000000
                                                        10.389228       0.000000
                          1       4    4pz               0.162492       0.038040
                                                         0.200000       0.066991
                                                         0.496955       0.157162
                                                         1.388401       0.636473
                                                         3.849621       0.000000
                                                        10.389228       0.000000

                          1       5    4dx2              0.162492      -0.093119
                                                         0.200000       0.067810
                                                         0.496955      -0.233391
                                                         1.388401       0.119464
                                                         3.849621       0.000000
                                                        10.389228       0.000000
                          1       5    4dxy              0.162492      -0.161287
                                                         0.200000       0.117451
                                                         0.496955      -0.404245
                                                         1.388401       0.206919
                                                         3.849621       0.000000
                                                        10.389228       0.000000
                          1       5    4dxz              0.162492      -0.161287
                                                         0.200000       0.117451
                                                         0.496955      -0.404245
                                                         1.388401       0.206919
                                                         3.849621       0.000000
                                                        10.389228       0.000000
                          1       5    4dy2              0.162492      -0.093119
                                                         0.200000       0.067810
                                                         0.496955      -0.233391
                                                         1.388401       0.119464
                                                         3.849621       0.000000
                                                        10.389228       0.000000
                          1       5    4dyz              0.162492      -0.161287
                                                         0.200000       0.117451
                                                         0.496955      -0.404245
                                                         1.388401       0.206919
                                                         3.849621       0.000000
                                                        10.389228       0.000000
                          1       5    4dz2              0.162492      -0.093119
                                                         0.200000       0.067810
                                                         0.496955      -0.233391
                                                         1.388401       0.119464
                                                         3.849621       0.000000
                                                        10.389228       0.000000

     RI Auxiliary Basis Set             RI_aug-SZV-MOLOPT-GTH_N_RI_078_s_p_d_f_g

       Number of orbital shell sets:                                          22
       Number of orbital shells:                                              22
       Number of primitive Cartesian functions:                               22
       Number of Cartesian basis functions:                                   95
       Number of spherical basis functions:                                   78
       Norm type:                                                              2

       Normalised Cartesian orbitals:

                        Set   Shell   Orbital            Exponent    Coefficient

                          1       1    1s                0.401594       0.359543

                          2       1    2s                0.755894       0.577771

                          3       1    3s                1.416722       0.925494

                          4       1    4s                2.650205       1.480368

                          5       1    5s                4.956718       2.367586

                          6       1    6s                9.262290       3.783980

                          7       1    7s               17.311568       6.048705

                          8       1    8px               0.366288       0.406180
                          8       1    8py               0.366288       0.406180
                          8       1    8pz               0.366288       0.406180

                          9       1    9px               0.838631       1.143941
                          9       1    9py               0.838631       1.143941
                          9       1    9pz               0.838631       1.143941

                         10       1   10px               1.790515       2.952314
                         10       1   10py               1.790515       2.952314
                         10       1   10pz               1.790515       2.952314

                         11       1   11px               3.856077       7.702331
                         11       1   11py               3.856077       7.702331
                         11       1   11pz               3.856077       7.702331

                         12       1   12px               8.163201      19.668248
                         12       1   12py               8.163201      19.668248
                         12       1   12pz               8.163201      19.668248

                         13       1   13px              17.241147      50.078092
                         13       1   13py              17.241147      50.078092
                         13       1   13pz              17.241147      50.078092

                         14       1   14dx2              0.406104       0.340035
                         14       1   14dxy              0.406104       0.588958
                         14       1   14dxz              0.406104       0.588958
                         14       1   14dy2              0.406104       0.340035
                         14       1   14dyz              0.406104       0.588958
                         14       1   14dz2              0.406104       0.340035

                         15       1   15dx2              1.037680       1.755985
                         15       1   15dxy              1.037680       3.041455
                         15       1   15dxz              1.037680       3.041455
                         15       1   15dy2              1.037680       1.755985
                         15       1   15dyz              1.037680       3.041455
                         15       1   15dz2              1.037680       1.755985

                         16       1   16dx2              2.651658       9.069121
                         16       1   16dxy              2.651658      15.708178
                         16       1   16dxz              2.651658      15.708178
                         16       1   16dy2              2.651658       9.069121
                         16       1   16dyz              2.651658      15.708178
                         16       1   16dz2              2.651658       9.069121

                         17       1   17dx2              6.778565      46.870600
                         17       1   17dxy              6.778565      81.182261
                         17       1   17dxz              6.778565      81.182261
                         17       1   17dy2              6.778565      46.870600
                         17       1   17dyz              6.778565      81.182261
                         17       1   17dz2              6.778565      46.870600

                         18       1   18dx2             17.317084     241.958178
                         18       1   18dxy             17.317084     419.083857
                         18       1   18dxz             17.317084     419.083857
                         18       1   18dy2             17.317084     241.958178
                         18       1   18dyz             17.317084     419.083857
                         18       1   18dz2             17.317084     241.958178

                         19       1   19fx3              0.445310       0.238476
                         19       1   19fx2y             0.445310       0.533248
                         19       1   19fx2z             0.445310       0.533248
                         19       1   19fxy2             0.445310       0.533248
                         19       1   19fxyz             0.445310       0.923612
                         19       1   19fxz2             0.445310       0.533248
                         19       1   19fy3              0.445310       0.238476
                         19       1   19fy2z             0.445310       0.533248
                         19       1   19fyz2             0.445310       0.533248
                         19       1   19fz3              0.445310       0.238476

                         20       1   20fx3              1.340594       2.846906
                         20       1   20fx2y             1.340594       6.365876
                         20       1   20fx2z             1.340594       6.365876
                         20       1   20fxy2             1.340594       6.365876
                         20       1   20fxyz             1.340594      11.026020
                         20       1   20fxz2             1.340594       6.365876
                         20       1   20fy3              1.340594       2.846906
                         20       1   20fy2z             1.340594       6.365876
                         20       1   20fyz2             1.340594       6.365876
                         20       1   20fz3              1.340594       2.846906

                         21       1   21fx3              4.941598      53.598921
                         21       1   21fx2y             4.941598     119.850830
                         21       1   21fx2z             4.941598     119.850830
                         21       1   21fxy2             4.941598     119.850830
                         21       1   21fxyz             4.941598     207.587727
                         21       1   21fxz2             4.941598     119.850830
                         21       1   21fy3              4.941598      53.598921
                         21       1   21fy2z             4.941598     119.850830
                         21       1   21fyz2             4.941598     119.850830
                         21       1   21fz3              4.941598      53.598921

                         22       1   22fx3             17.301792     898.792404
                         22       1   22fx2y            17.301792    2009.760913
                         22       1   22fx2z            17.301792    2009.760913
                         22       1   22fxy2            17.301792    2009.760913
                         22       1   22fxyz            17.301792    3481.008013
                         22       1   22fxz2            17.301792    2009.760913
                         22       1   22fy3             17.301792     898.792404
                         22       1   22fy2z            17.301792    2009.760913
                         22       1   22fyz2            17.301792    2009.760913
                         22       1   22fz3             17.301792     898.792404

       Atomic covalent radius [Angstrom]:                                  0.730

       Atomic van der Waals radius [Angstrom]:                             1.520

     GTH Potential information for                                       GTH-PBE

       Description:                       Goedecker-Teter-Hutter pseudopotential
                                           Goedecker et al., PRB 54, 1703 (1996)
                                          Hartwigsen et al., PRB 58, 3641 (1998)
                                                      Krack, TCA 114, 145 (2005)

       Gaussian exponent of the core charge distribution:               8.360253
       Electronic configuration (s p d ...):                               2   4

       Parameters of the local part of the GTH pseudopotential:

                          rloc        C1          C2          C3          C4
                        0.244554  -16.667215    2.487311

       Parameters of the non-local part of the GTH pseudopotential:

                   l      r(l)      h(i,j,l)

                   0    0.220956   18.337458
                   1    0.211332


 MOLECULE KIND INFORMATION


 All atoms are their own molecule, skipping detailed information


 TOTAL NUMBERS AND MAXIMUM NUMBERS

  Total number of            - Atomic kinds:                                   2
                             - Atoms:                                          2
                             - Shell sets:                                     2
                             - Shells:                                        10
                             - Primitive Cartesian functions:                 12
                             - Cartesian basis functions:                     28
                             - Spherical basis functions:                     26

  Maximum angular momentum of- Orbital basis functions:                        2
                             - Local part of the GTH pseudopotential:          2
                             - Non-local part of the GTH pseudopotential:      0


 MODULE QUICKSTEP: ATOMIC COORDINATES IN ANGSTROM

   Atom Kind Element         X             Y             Z       Z(eff)     Mass
      1    1 C     6      4.358500      5.000000      5.000000   4.0000  12.0107
      2    2 O     8      5.641500      5.000000      5.000000   6.0000  15.9994



 SCF PARAMETERS         Density guess:                                   RESTART
                        --------------------------------------------------------
                        max_scf:                                             200
                        max_scf_history:                                       0
                        max_diis:                                              4
                        --------------------------------------------------------
                        eps_scf:                                        1.00E-09
                        eps_scf_history:                                0.00E+00
                        eps_diis:                                       1.00E-01
                        eps_eigval:                                     1.00E-05
                        --------------------------------------------------------
                        level_shift [a.u.]:                             0.000000
                        added MOs                                        21    0
                        --------------------------------------------------------
                        Mixing method:                              PULAY_MIXING
                                                charge density mixing in g-space
                        --------------------------------------------------------
                        No outer SCF

 PW_GRID| Information for grid number                                          1
 PW_GRID| Grid distributed over                                     4 processors
 PW_GRID| Real space group dimensions                                     4    1
 PW_GRID| the grid is blocked:                                                NO
 PW_GRID| Cutoff [a.u.]                                                    200.0
 PW_GRID| spherical cutoff:                                                   NO
 PW_GRID|   Bounds   1            -62      62                Points:         125
 PW_GRID|   Bounds   2            -62      62                Points:         125
 PW_GRID|   Bounds   3            -62      62                Points:         125
 PW_GRID| Volume element (a.u.^3)  0.3455E-02     Volume (a.u.^3)      6748.3346
 PW_GRID| Grid span                                                    FULLSPACE
 PW_GRID|   Distribution                         Average         Max         Min
 PW_GRID|   G-Vectors                           488281.2      488375      488250
 PW_GRID|   G-Rays                                3906.2        3907        3906
 PW_GRID|   Real Space Points                   488281.2      500000      484375

 PW_GRID| Information for grid number                                          2
 PW_GRID| Number of the reference grid                                         1
 PW_GRID| Grid distributed over                                     4 processors
 PW_GRID| Real space group dimensions                                     4    1
 PW_GRID| the grid is blocked:                                                NO
 PW_GRID| Cutoff [a.u.]                                                     66.7
 PW_GRID| spherical cutoff:                                                   NO
 PW_GRID|   Bounds   1            -36      35                Points:          72
 PW_GRID|   Bounds   2            -36      35                Points:          72
 PW_GRID|   Bounds   3            -36      35                Points:          72
 PW_GRID| Volume element (a.u.^3)  0.1808E-01     Volume (a.u.^3)      6748.3346
 PW_GRID| Grid span                                                    FULLSPACE
 PW_GRID|   Distribution                         Average         Max         Min
 PW_GRID|   G-Vectors                            93312.0       93384       93240
 PW_GRID|   G-Rays                                1296.0        1297        1295
 PW_GRID|   Real Space Points                    93312.0       93312       93312

 PW_GRID| Information for grid number                                          3
 PW_GRID| Number of the reference grid                                         1
 PW_GRID| Grid distributed over                                     4 processors
 PW_GRID| Real space group dimensions                                     4    1
 PW_GRID| the grid is blocked:                                                NO
 PW_GRID| Cutoff [a.u.]                                                     22.2
 PW_GRID| spherical cutoff:                                                   NO
 PW_GRID|   Bounds   1            -22      22                Points:          45
 PW_GRID|   Bounds   2            -22      22                Points:          45
 PW_GRID|   Bounds   3            -22      22                Points:          45
 PW_GRID| Volume element (a.u.^3)  0.7406E-01     Volume (a.u.^3)      6748.3346
 PW_GRID| Grid span                                                    FULLSPACE
 PW_GRID|   Distribution                         Average         Max         Min
 PW_GRID|   G-Vectors                            22781.2       22905       22680
 PW_GRID|   G-Rays                                 506.2         509         504
 PW_GRID|   Real Space Points                    22781.2       24300       22275

 PW_GRID| Information for grid number                                          4
 PW_GRID| Number of the reference grid                                         1
 PW_GRID| Grid distributed over                                     4 processors
 PW_GRID| Real space group dimensions                                     4    1
 PW_GRID| the grid is blocked:                                                NO
 PW_GRID| Cutoff [a.u.]                                                      7.4
 PW_GRID| spherical cutoff:                                                   NO
 PW_GRID|   Bounds   1            -12      11                Points:          24
 PW_GRID|   Bounds   2            -12      11                Points:          24
 PW_GRID|   Bounds   3            -12      11                Points:          24
 PW_GRID| Volume element (a.u.^3)  0.4882         Volume (a.u.^3)      6748.3346
 PW_GRID| Grid span                                                    FULLSPACE
 PW_GRID|   Distribution                         Average         Max         Min
 PW_GRID|   G-Vectors                             3456.0        3480        3432
 PW_GRID|   G-Rays                                 144.0         145         143
 PW_GRID|   Real Space Points                     3456.0        3456        3456

 POISSON| Solver                                                         WAVELET
 POISSON| Wavelet| Scaling function                                           40
 POISSON| Periodicity                                                       NONE

 RS_GRID| Information for grid number                                          1
 RS_GRID|   Bounds   1            -62      62                Points:         125
 RS_GRID|   Bounds   2            -62      62                Points:         125
 RS_GRID|   Bounds   3            -62      62                Points:         125
 RS_GRID| Real space fully replicated
 RS_GRID| Group size                                                           1

 RS_GRID| Information for grid number                                          2
 RS_GRID|   Bounds   1            -36      35                Points:          72
 RS_GRID|   Bounds   2            -36      35                Points:          72
 RS_GRID|   Bounds   3            -36      35                Points:          72
 RS_GRID| Real space fully replicated
 RS_GRID| Group size                                                           1

 RS_GRID| Information for grid number                                          3
 RS_GRID|   Bounds   1            -22      22                Points:          45
 RS_GRID|   Bounds   2            -22      22                Points:          45
 RS_GRID|   Bounds   3            -22      22                Points:          45
 RS_GRID| Real space fully replicated
 RS_GRID| Group size                                                           1

 RS_GRID| Information for grid number                                          4
 RS_GRID|   Bounds   1            -12      11                Points:          24
 RS_GRID|   Bounds   2            -12      11                Points:          24
 RS_GRID|   Bounds   3            -12      11                Points:          24
 RS_GRID| Real space fully replicated
 RS_GRID| Group size                                                           1

 Number of electrons:                                                         10
 Number of occupied orbitals:                                                  5
 Number of molecular orbitals:                                                26

 Number of orbital functions:                                                 26
 Number of independent orbital functions:                                     26

 Extrapolation method: initial_guess


 SCF WAVEFUNCTION OPTIMIZATION

  Step     Update method      Time    Convergence         Total energy    Change
  ------------------------------------------------------------------------------
     1 NoMix/Diag. 0.40E+00    1.2     1.7693E-09       -21.6237716536 -2.16E+01
     2 Pulay/Diag. 0.40E+00    1.1     2.4728E-09       -21.6237716566 -2.97E-09
     3 Pulay/Diag. 0.40E+00    1.1     1.7125E-09       -21.6237716513  5.26E-09
     4 Pulay/Diag. 0.40E+00    1.2     1.1387E-09       -21.6237716551 -3.74E-09
     5 Pulay/Diag. 0.40E+00    1.2     7.9276E-10       -21.6237716526  2.48E-09

  *** SCF run converged in     5 steps ***


  Electronic density on regular grids:        -10.0000000008       -0.0000000008
  Core density on regular grids:                9.9999999995       -0.0000000005
  Total charge density on r-space grids:       -0.0000000013
  Total charge density g-space grids:          -0.0000000013

  Overlap energy of the core charge distribution:               0.00000006326961
  Self energy of the core charge distribution:                -54.86121500576408
  Core Hamiltonian energy:                                     15.08850686031429
  Hartree energy:                                              23.10575822782262
  Exchange-correlation energy:                                 -4.95107497007066

  Total energy:                                               -21.62377165260556

 !-----------------------------------------------------------------------------!
                     Mulliken Population Analysis

 #  Atom  Element  Kind  Atomic population                           Net charge
       1     C        1          3.699994                              0.300006
       2     O        2          6.300006                             -0.300006
 # Total charge                             10.000000                 -0.000000

 !-----------------------------------------------------------------------------!

 !-----------------------------------------------------------------------------!
                           Hirshfeld Charges

  #Atom  Element  Kind  Ref Charge     Population                    Net charge
      1       C      1       4.000          3.759                         0.241
      2       O      2       6.000          6.239                        -0.239

  Total Charge                                                            0.003
 !-----------------------------------------------------------------------------!
  
 -------------------------------------------------------------------------------
 -                                                                             -
 -                          BANDSTRUCTURE CALCULATION                          -
 -                                                                             -
 -------------------------------------------------------------------------------
  
 Number of occupied molecular orbitals (MOs) = Number of occupied bands        5
 Number of unoccupied (= virtual) MOs = Number of unoccupied bands            21
 Number of Gaussian basis functions for MOs                                   26
 K-point mesh for the density of states (DOS) and the self-energy      1   1   1
  
 -------------------------------------------------------------------------------
 -                                                                             -
 -                              GW CALCULATION                                 -
 -                                                                             -
 -------------------------------------------------------------------------------
  
 Input: Number of time/freq. points                                           30
 Input: Filter threshold for sparse tensor operations                    1.0E-08
 Apply Hedin shift                                                             F
  
 Number of auxiliary Gaussian basis functions for χ, ε, W                    145
 Cutoff radius for the truncated Coulomb operator in Σ^x:               2645.9 Å
 Cutoff radius for the truncated Coulomb operator in RI metric:            3.0 Å
 Regularization parameter of RI                                          0.0E+00
 Lattice sum size for V(k):                                                    3
  
 K-point mesh 1 for χ, ε, W                                            1   1   1
 K-point mesh 2 for χ, ε, W (for k-point extrapolation of W)           1   1   1
 Approximate the k-point extrapolation                                         F
 Group size for tensor operations                                              4
 The requested group size is > 1 which can lead to bad performance.
 Using more memory per MPI process might improve performance.
 (Also increase MEMORY_PER_PROC when using more memory per process.)
 
 Computed 3-center integrals (µν|P), execution time                        0.2 s
 Percentage of non-zero (µν|P)                                         100.000 %
 Max. distance between µ,ν in non-zero (µν|P)                              1.3 A
 Required memory if storing all 3-center integrals (µν|P)                   0 GB
 
 Number of i and j atoms in M_λνP(τ), N_νλQ(τ):                               36
 Number of inner loop atoms for µ in M_λνP = sum_µ (µν|P) G_µλ                 2
 
 SCF direct band gap (eV)                                                   5.86
 Max. SCF eigval diff. (eV)                                               203.50
 E-Range for minimax grid                                                  34.73
 Number of Padé parameters for analytic continuation:                         16
 
 Read χ(iτ,k=0) from file for time point      1 / 30,    Execution time    0.0 s
 Read χ(iτ,k=0) from file for time point      2 / 30,    Execution time    0.0 s
 Read χ(iτ,k=0) from file for time point      3 / 30,    Execution time    0.0 s
 Read χ(iτ,k=0) from file for time point      4 / 30,    Execution time    0.0 s
 Read χ(iτ,k=0) from file for time point      5 / 30,    Execution time    0.0 s
 Read χ(iτ,k=0) from file for time point      6 / 30,    Execution time    0.0 s
 Read χ(iτ,k=0) from file for time point      7 / 30,    Execution time    0.0 s
 Read χ(iτ,k=0) from file for time point      8 / 30,    Execution time    0.0 s
 Read χ(iτ,k=0) from file for time point      9 / 30,    Execution time    0.0 s
 Read χ(iτ,k=0) from file for time point     10 / 30,    Execution time    0.0 s
 Read χ(iτ,k=0) from file for time point     11 / 30,    Execution time    0.0 s
 Read χ(iτ,k=0) from file for time point     12 / 30,    Execution time    0.0 s
 Read χ(iτ,k=0) from file for time point     13 / 30,    Execution time    0.0 s
 Read χ(iτ,k=0) from file for time point     14 / 30,    Execution time    0.0 s
 Read χ(iτ,k=0) from file for time point     15 / 30,    Execution time    0.0 s
 Read χ(iτ,k=0) from file for time point     16 / 30,    Execution time    0.0 s
 Read χ(iτ,k=0) from file for time point     17 / 30,    Execution time    0.0 s
 Read χ(iτ,k=0) from file for time point     18 / 30,    Execution time    0.0 s
 Read χ(iτ,k=0) from file for time point     19 / 30,    Execution time    0.0 s
 Read χ(iτ,k=0) from file for time point     20 / 30,    Execution time    0.0 s
 Read χ(iτ,k=0) from file for time point     21 / 30,    Execution time    0.0 s
 Read χ(iτ,k=0) from file for time point     22 / 30,    Execution time    0.0 s
 Read χ(iτ,k=0) from file for time point     23 / 30,    Execution time    0.0 s
 Read χ(iτ,k=0) from file for time point     24 / 30,    Execution time    0.0 s
 Read χ(iτ,k=0) from file for time point     25 / 30,    Execution time    0.0 s
 Read χ(iτ,k=0) from file for time point     26 / 30,    Execution time    0.0 s
 Read χ(iτ,k=0) from file for time point     27 / 30,    Execution time    0.0 s
 Read χ(iτ,k=0) from file for time point     28 / 30,    Execution time    0.0 s
 Read χ(iτ,k=0) from file for time point     29 / 30,    Execution time    0.0 s
 Read χ(iτ,k=0) from file for time point     30 / 30,    Execution time    0.0 s
 
 Computed W(iτ,k) for k-point batch           1 /  1,    Execution time    0.2 s
 Computed W(f=0,k) for k-point batch          1 /  1,    Execution time    0.0 s
 
 Read Σ^c(iτ,k=0) from file for time point    1 / 30,    Execution time    0.0 s
 Read Σ^c(iτ,k=0) from file for time point    2 / 30,    Execution time    0.0 s
 Read Σ^c(iτ,k=0) from file for time point    3 / 30,    Execution time    0.0 s
 Read Σ^c(iτ,k=0) from file for time point    4 / 30,    Execution time    0.0 s
 Read Σ^c(iτ,k=0) from file for time point    5 / 30,    Execution time    0.0 s
 Read Σ^c(iτ,k=0) from file for time point    6 / 30,    Execution time    0.0 s
 Read Σ^c(iτ,k=0) from file for time point    7 / 30,    Execution time    0.0 s
 Read Σ^c(iτ,k=0) from file for time point    8 / 30,    Execution time    0.0 s
 Read Σ^c(iτ,k=0) from file for time point    9 / 30,    Execution time    0.0 s
 Read Σ^c(iτ,k=0) from file for time point   10 / 30,    Execution time    0.0 s
 Read Σ^c(iτ,k=0) from file for time point   11 / 30,    Execution time    0.0 s
 Read Σ^c(iτ,k=0) from file for time point   12 / 30,    Execution time    0.0 s
 Read Σ^c(iτ,k=0) from file for time point   13 / 30,    Execution time    0.0 s
 Read Σ^c(iτ,k=0) from file for time point   14 / 30,    Execution time    0.0 s
 Read Σ^c(iτ,k=0) from file for time point   15 / 30,    Execution time    0.0 s
 Read Σ^c(iτ,k=0) from file for time point   16 / 30,    Execution time    0.0 s
 Read Σ^c(iτ,k=0) from file for time point   17 / 30,    Execution time    0.0 s
 Read Σ^c(iτ,k=0) from file for time point   18 / 30,    Execution time    0.0 s
 Read Σ^c(iτ,k=0) from file for time point   19 / 30,    Execution time    0.0 s
 Read Σ^c(iτ,k=0) from file for time point   20 / 30,    Execution time    0.0 s
 Read Σ^c(iτ,k=0) from file for time point   21 / 30,    Execution time    0.0 s
 Read Σ^c(iτ,k=0) from file for time point   22 / 30,    Execution time    0.0 s
 Read Σ^c(iτ,k=0) from file for time point   23 / 30,    Execution time    0.0 s
 Read Σ^c(iτ,k=0) from file for time point   24 / 30,    Execution time    0.0 s
 Read Σ^c(iτ,k=0) from file for time point   25 / 30,    Execution time    0.0 s
 Read Σ^c(iτ,k=0) from file for time point   26 / 30,    Execution time    0.0 s
 Read Σ^c(iτ,k=0) from file for time point   27 / 30,    Execution time    0.0 s
 Read Σ^c(iτ,k=0) from file for time point   28 / 30,    Execution time    0.0 s
 Read Σ^c(iτ,k=0) from file for time point   29 / 30,    Execution time    0.0 s
 Read Σ^c(iτ,k=0) from file for time point   30 / 30,    Execution time    0.0 s
 
 Sparsity of Σ^c(iτ,k=0): Percentage of skipped atom pairs:                0.0 %
 Retaining nl_3c for RTBSE

 
 SCF valence band maximum (eV):                                           -9.186
 SCF conduction band minimum (eV):                                        -3.326
 SCF indirect band gap (eV):                                               5.860
 SCF direct band gap (eV):                                                 5.860
 
 G0W0 valence band maximum (eV):                                         -12.829
 G0W0 conduction band minimum (eV):                                        2.198
 G0W0 indirect band gap (eV):                                             15.026
 G0W0 direct band gap (eV):                                               15.026
 
 Hartree-Fock with SCF orbitals valence band maximum (eV):               -14.562
 Hartree-Fock with SCF orbitals conduction band minimum (eV)               3.044
 Hartree-Fock with SCF orbitals indirect band gap (eV):                   17.606
 Hartree-Fock with SCF orbitals direct band gap (eV):                     17.606

 ENERGY| Total FORCE_EVAL ( QS ) energy [hartree]            -21.623771652605562
 === Start time :    2.9999999999999996     
 === Start time :    2.9999999999999996     
 === Start time :    2.9999999999999996     
 === Start time :    2.9999999999999996     
 RTBSE| Approximate size of the 3c integrals                       0.75E+000 MiB
 
 /-----------------------------------------------------------------------------\
 |                                                                             |
 |                    Real Time Bethe-Salpeter Propagation                     |
 |                                                                             |
 \-----------------------------------------------------------------------------/
 
 Exponential method                                                          BCH
 Reference Hamiltonian                                                      G0W0
 Apply delta pulse                                                             F


 *** WARNING in emd/rt_bse_io.F:482 :: Restart required but no info file ***
 *** found - starting from sim_step given in input                       ***


 *** WARNING in emd/rt_bse_io.F:508 :: Restart without some restart ***
 *** matrices - starting from SCF density.                          ***


 *** WARNING in emd/rt_bse_io.F:561 :: Restart without previous moments - ***
 *** unknown moments trace set to zero.                                   ***


 *** WARNING in emd/rt_bse_io.F:328 :: Restart without RT field file - ***
 *** unknown field trace set to zero.                                  ***

 RTBSE| Simulation step         Convergence     Electron number  ETRS Iterations
 RTBSE|               0     0.84191671E-007     0.10000000E+002                3
 RTBSE| Simulation step         Convergence     Electron number  ETRS Iterations
 RTBSE|               1     0.91021171E-007     0.10000000E+002                3
 RTBSE| Simulation step         Convergence     Electron number  ETRS Iterations
 RTBSE|               2     0.91949941E-007     0.10000000E+002                3
 RTBSE| Simulation step         Convergence     Electron number  ETRS Iterations
 RTBSE|               3     0.86139571E-007     0.10000000E+002                3
 RTBSE| Simulation step         Convergence     Electron number  ETRS Iterations
 RTBSE|               4     0.72741477E-007     0.10000000E+002                3
 RTBSE| Simulation step         Convergence     Electron number  ETRS Iterations
 RTBSE|               5     0.53753374E-007     0.10000000E+002                3
 RTBSE| Simulation step         Convergence     Electron number  ETRS Iterations
 RTBSE|               6     0.49501921E-007     0.10000000E+002                3
 RTBSE| Simulation step         Convergence     Electron number  ETRS Iterations
 RTBSE|               7     0.47339096E-007     0.10000000E+002                3
 RTBSE| Simulation step         Convergence     Electron number  ETRS Iterations
 RTBSE|               8     0.42516807E-007     0.10000000E+002                3
 RTBSE| Simulation step         Convergence     Electron number  ETRS Iterations
 RTBSE|               9     0.33214576E-007     0.10000000E+002                3
 RTBSE| Simulation step         Convergence     Electron number  ETRS Iterations
 RTBSE|              10     0.37952508E-007     0.10000000E+002                3
 RTBSE| Simulation step         Convergence     Electron number  ETRS Iterations
 RTBSE|              11     0.49831420E-007     0.10000000E+002                3
 RTBSE| Simulation step         Convergence     Electron number  ETRS Iterations
 RTBSE|              12     0.56034954E-007     0.10000000E+002                3
 RTBSE| Simulation step         Convergence     Electron number  ETRS Iterations
 RTBSE|              13     0.65501944E-007     0.10000000E+002                3
 RTBSE| Simulation step         Convergence     Electron number  ETRS Iterations
 RTBSE|              14     0.78240012E-007     0.10000000E+002                3
 RTBSE| Simulation step         Convergence     Electron number  ETRS Iterations
 RTBSE|              15     0.89408064E-007     0.10000000E+002                3
 RTBSE| Simulation step         Convergence     Electron number  ETRS Iterations
 RTBSE|              16     0.91734262E-007     0.10000000E+002                3
 RTBSE| Simulation step         Convergence     Electron number  ETRS Iterations
 RTBSE|              17     0.85082672E-007     0.10000000E+002                3
 RTBSE| Simulation step         Convergence     Electron number  ETRS Iterations
 RTBSE|              18     0.81605327E-007     0.10000000E+002                3
 RTBSE| Simulation step         Convergence     Electron number  ETRS Iterations
 RTBSE|              19     0.85248908E-007     0.10000000E+002                3
 RTBSE| Simulation step         Convergence     Electron number  ETRS Iterations
 RTBSE|              20     0.90923060E-007     0.10000000E+002                3
 RTBSE| Simulation step         Convergence     Electron number  ETRS Iterations
 RTBSE|              21     0.91723170E-007     0.10000000E+002                3
 RTBSE| Simulation step         Convergence     Electron number  ETRS Iterations
 RTBSE|              22     0.83086935E-007     0.10000000E+002                3
 RTBSE| Simulation step         Convergence     Electron number  ETRS Iterations
 RTBSE|              23     0.73585724E-007     0.10000000E+002                3
 RTBSE| Simulation step         Convergence     Electron number  ETRS Iterations
 RTBSE|              24     0.67859319E-007     0.10000000E+002                3
 RTBSE| Simulation step         Convergence     Electron number  ETRS Iterations
 RTBSE|              25     0.60997004E-007     0.10000000E+002                3
 RTBSE| Simulation step         Convergence     Electron number  ETRS Iterations
 RTBSE|              26     0.59227483E-007     0.10000000E+002                3
 RTBSE| Simulation step         Convergence     Electron number  ETRS Iterations
 RTBSE|              27     0.57050281E-007     0.10000000E+002                3
 RTBSE| Simulation step         Convergence     Electron number  ETRS Iterations
 RTBSE|              28     0.50987150E-007     0.10000000E+002                3
 RTBSE| Simulation step         Convergence     Electron number  ETRS Iterations
 RTBSE|              29     0.45905314E-007     0.10000000E+002                3
 RTBSE| Simulation step         Convergence     Electron number  ETRS Iterations
 RTBSE|              30     0.41894929E-007     0.10000000E+002                3
 RTBSE| Simulation step         Convergence     Electron number  ETRS Iterations
 RTBSE|              31     0.48756690E-007     0.10000000E+002                3
 RTBSE| Simulation step         Convergence     Electron number  ETRS Iterations
 RTBSE|              32     0.67401354E-007     0.10000000E+002                3
 RTBSE| Simulation step         Convergence     Electron number  ETRS Iterations
 RTBSE|              33     0.86562659E-007     0.10000000E+002                3
 RTBSE| Simulation step         Convergence     Electron number  ETRS Iterations
 RTBSE|              34     0.13603634E-007     0.10000000E+002                4
 RTBSE| Simulation step         Convergence     Electron number  ETRS Iterations
 RTBSE|              35     0.16133458E-007     0.10000000E+002                4
 RTBSE| Simulation step         Convergence     Electron number  ETRS Iterations
 RTBSE|              36     0.18756179E-007     0.10000000E+002                4
 RTBSE| Simulation step         Convergence     Electron number  ETRS Iterations
 RTBSE|              37     0.21140437E-007     0.10000000E+002                4
 RTBSE| Simulation step         Convergence     Electron number  ETRS Iterations
 RTBSE|              38     0.22946393E-007     0.10000000E+002                4
 RTBSE| Simulation step         Convergence     Electron number  ETRS Iterations
 RTBSE|              39     0.24118072E-007     0.10000000E+002                4
 RTBSE| Simulation step         Convergence     Electron number  ETRS Iterations
 RTBSE|              40     0.25009877E-007     0.10000000E+002                4
 RTBSE| Simulation step         Convergence     Electron number  ETRS Iterations
 RTBSE|              41     0.25443324E-007     0.10000000E+002                4
 RTBSE| Simulation step         Convergence     Electron number  ETRS Iterations
 RTBSE|              42     0.25070767E-007     0.10000000E+002                4
 RTBSE| Simulation step         Convergence     Electron number  ETRS Iterations
 RTBSE|              43     0.23661513E-007     0.10000000E+002                4
 RTBSE| Simulation step         Convergence     Electron number  ETRS Iterations
 RTBSE|              44     0.22923638E-007     0.10000000E+002                4
 RTBSE| Simulation step         Convergence     Electron number  ETRS Iterations
 RTBSE|              45     0.21931847E-007     0.10000000E+002                4
 RTBSE| Simulation step         Convergence     Electron number  ETRS Iterations
 RTBSE|              46     0.20938096E-007     0.10000000E+002                4
 RTBSE| Simulation step         Convergence     Electron number  ETRS Iterations
 RTBSE|              47     0.20030864E-007     0.10000000E+002                4
 RTBSE| Simulation step         Convergence     Electron number  ETRS Iterations
 RTBSE|              48     0.18764938E-007     0.10000000E+002                4
 RTBSE| Simulation step         Convergence     Electron number  ETRS Iterations
 RTBSE|              49     0.99712498E-007     0.10000000E+002                3
 RTBSE| Simulation step         Convergence     Electron number  ETRS Iterations
 RTBSE|              50     0.91462560E-007     0.10000000E+002                3
 RTBSE| Simulation step         Convergence     Electron number  ETRS Iterations
 RTBSE|              51     0.82190331E-007     0.10000000E+002                3
 RTBSE| Simulation step         Convergence     Electron number  ETRS Iterations
 RTBSE|              52     0.75338742E-007     0.10000000E+002                3
 RTBSE| Simulation step         Convergence     Electron number  ETRS Iterations
 RTBSE|              53     0.71309307E-007     0.10000000E+002                3
 RTBSE| Simulation step         Convergence     Electron number  ETRS Iterations
 RTBSE|              54     0.86442875E-007     0.10000000E+002                3
 RTBSE| Simulation step         Convergence     Electron number  ETRS Iterations
 RTBSE|              55     0.16825048E-007     0.10000000E+002                4
 RTBSE| Simulation step         Convergence     Electron number  ETRS Iterations
 RTBSE|              56     0.20637277E-007     0.10000000E+002                4
 RTBSE| Simulation step         Convergence     Electron number  ETRS Iterations
 RTBSE|              57     0.24433430E-007     0.10000000E+002                4
 RTBSE| Simulation step         Convergence     Electron number  ETRS Iterations
 RTBSE|              58     0.28058065E-007     0.10000000E+002                4
 RTBSE| Simulation step         Convergence     Electron number  ETRS Iterations
 RTBSE|              59     0.31263103E-007     0.10000000E+002                4
 RTBSE| Simulation step         Convergence     Electron number  ETRS Iterations
 RTBSE|              60     0.34042706E-007     0.10000000E+002                4
 RTBSE| Simulation step         Convergence     Electron number  ETRS Iterations
 RTBSE|              61     0.36634549E-007     0.10000000E+002                4
 RTBSE| Simulation step         Convergence     Electron number  ETRS Iterations
 RTBSE|              62     0.38717330E-007     0.10000000E+002                4
 RTBSE| Simulation step         Convergence     Electron number  ETRS Iterations
 RTBSE|              63     0.39911278E-007     0.10000000E+002                4
 RTBSE| Simulation step         Convergence     Electron number  ETRS Iterations
 RTBSE|              64     0.39716260E-007     0.10000000E+002                4
 RTBSE| Simulation step         Convergence     Electron number  ETRS Iterations
 RTBSE|              65     0.38295099E-007     0.10000000E+002                4
 RTBSE| Simulation step         Convergence     Electron number  ETRS Iterations
 RTBSE|              66     0.36509998E-007     0.10000000E+002                4
 RTBSE| Simulation step         Convergence     Electron number  ETRS Iterations
 RTBSE|              67     0.34856669E-007     0.10000000E+002                4
 RTBSE| Simulation step         Convergence     Electron number  ETRS Iterations
 RTBSE|              68     0.33147426E-007     0.10000000E+002                4
 RTBSE| Simulation step         Convergence     Electron number  ETRS Iterations
 RTBSE|              69     0.33418831E-007     0.10000000E+002                4
 RTBSE| Simulation step         Convergence     Electron number  ETRS Iterations
 RTBSE|              70     0.32571214E-007     0.10000000E+002                4
 RTBSE| Simulation step         Convergence     Electron number  ETRS Iterations
 RTBSE|              71     0.30914851E-007     0.10000000E+002                4
 RTBSE| Simulation step         Convergence     Electron number  ETRS Iterations
 RTBSE|              72     0.29346783E-007     0.10000000E+002                4
 RTBSE| Simulation step         Convergence     Electron number  ETRS Iterations
 RTBSE|              73     0.28025592E-007     0.10000000E+002                4
 RTBSE| Simulation step         Convergence     Electron number  ETRS Iterations
 RTBSE|              74     0.26056029E-007     0.10000000E+002                4
 RTBSE| Simulation step         Convergence     Electron number  ETRS Iterations
 RTBSE|              75     0.22938658E-007     0.10000000E+002                4
 RTBSE| Simulation step         Convergence     Electron number  ETRS Iterations
 RTBSE|              76     0.18708293E-007     0.10000000E+002                4
 RTBSE| Simulation step         Convergence     Electron number  ETRS Iterations
 RTBSE|              77     0.14290905E-007     0.10000000E+002                4
 RTBSE| Simulation step         Convergence     Electron number  ETRS Iterations
 RTBSE|              78     0.16608524E-007     0.10000000E+002                4
 RTBSE| Simulation step         Convergence     Electron number  ETRS Iterations
 RTBSE|              79     0.21618507E-007     0.10000000E+002                4
 RTBSE| Simulation step         Convergence     Electron number  ETRS Iterations
 RTBSE|              80     0.26853222E-007     0.10000000E+002                4
 RTBSE| Simulation step         Convergence     Electron number  ETRS Iterations
 RTBSE|              81     0.32135819E-007     0.10000000E+002                4
 RTBSE| Simulation step         Convergence     Electron number  ETRS Iterations
 RTBSE|              82     0.37044516E-007     0.10000000E+002                4
 RTBSE| Simulation step         Convergence     Electron number  ETRS Iterations
 RTBSE|              83     0.41671035E-007     0.10000000E+002                4
 RTBSE| Simulation step         Convergence     Electron number  ETRS Iterations
 RTBSE|              84     0.46230488E-007     0.10000000E+002                4
 RTBSE| Simulation step         Convergence     Electron number  ETRS Iterations
 RTBSE|              85     0.50078062E-007     0.10000000E+002                4
 RTBSE| Simulation step         Convergence     Electron number  ETRS Iterations
 RTBSE|              86     0.52990945E-007     0.10000000E+002                4
 RTBSE| Simulation step         Convergence     Electron number  ETRS Iterations
 RTBSE|              87     0.54646206E-007     0.10000000E+002                4
 RTBSE| Simulation step         Convergence     Electron number  ETRS Iterations
 RTBSE|              88     0.55469298E-007     0.10000000E+002                4
 RTBSE| Simulation step         Convergence     Electron number  ETRS Iterations
 RTBSE|              89     0.56169371E-007     0.10000000E+002                4
 RTBSE| Simulation step         Convergence     Electron number  ETRS Iterations
 RTBSE|              90     0.56226618E-007     0.10000000E+002                4
 RTBSE| Simulation step         Convergence     Electron number  ETRS Iterations
 RTBSE|              91     0.55328311E-007     0.10000000E+002                4
 RTBSE| Simulation step         Convergence     Electron number  ETRS Iterations
 RTBSE|              92     0.53374905E-007     0.10000000E+002                4
 RTBSE| Simulation step         Convergence     Electron number  ETRS Iterations
 RTBSE|              93     0.50937950E-007     0.10000000E+002                4
 RTBSE| Simulation step         Convergence     Electron number  ETRS Iterations
 RTBSE|              94     0.49031606E-007     0.10000000E+002                4
 RTBSE| Simulation step         Convergence     Electron number  ETRS Iterations
 RTBSE|              95     0.49255960E-007     0.10000000E+002                4
 RTBSE| Simulation step         Convergence     Electron number  ETRS Iterations
 RTBSE|              96     0.50742144E-007     0.10000000E+002                4
 RTBSE| Simulation step         Convergence     Electron number  ETRS Iterations
 RTBSE|              97     0.50898657E-007     0.10000000E+002                4
 RTBSE| Simulation step         Convergence     Electron number  ETRS Iterations
 RTBSE|              98     0.49259455E-007     0.10000000E+002                4
 RTBSE| Simulation step         Convergence     Electron number  ETRS Iterations
 RTBSE|              99     0.47244271E-007     0.10000000E+002                4
 RTBSE| Simulation step         Convergence     Electron number  ETRS Iterations
 RTBSE|             100     0.45598446E-007     0.10000000E+002                4
 RTBSE| Simulation step         Convergence     Electron number  ETRS Iterations
 RTBSE|             101     0.43413636E-007     0.10000000E+002                4
 RTBSE| Simulation step         Convergence     Electron number  ETRS Iterations
 RTBSE|             102     0.39619614E-007     0.10000000E+002                4
 RTBSE| Simulation step         Convergence     Electron number  ETRS Iterations
 RTBSE|             103     0.33693990E-007     0.10000000E+002                4
 RTBSE| Simulation step         Convergence     Electron number  ETRS Iterations
 RTBSE|             104     0.26493109E-007     0.10000000E+002                4
 RTBSE| Simulation step         Convergence     Electron number  ETRS Iterations
 RTBSE|             105     0.29159145E-007     0.10000000E+002                4
 RTBSE| Simulation step         Convergence     Electron number  ETRS Iterations
 RTBSE|             106     0.38045670E-007     0.10000000E+002                4
 RTBSE| Simulation step         Convergence     Electron number  ETRS Iterations
 RTBSE|             107     0.47713507E-007     0.10000000E+002                4
 RTBSE| Simulation step         Convergence     Electron number  ETRS Iterations
 RTBSE|             108     0.57668493E-007     0.10000000E+002                4
 RTBSE| Simulation step         Convergence     Electron number  ETRS Iterations
 RTBSE|             109     0.67176151E-007     0.10000000E+002                4
 RTBSE| Simulation step         Convergence     Electron number  ETRS Iterations
 RTBSE|             110     0.75443743E-007     0.10000000E+002                4
 RTBSE| Simulation step         Convergence     Electron number  ETRS Iterations
 RTBSE|             111     0.82589644E-007     0.10000000E+002                4
 RTBSE| Simulation step         Convergence     Electron number  ETRS Iterations
 RTBSE|             112     0.88736112E-007     0.10000000E+002                4
 RTBSE| Simulation step         Convergence     Electron number  ETRS Iterations
 RTBSE|             113     0.93563493E-007     0.10000000E+002                4
 RTBSE| Simulation step         Convergence     Electron number  ETRS Iterations
 RTBSE|             114     0.97078760E-007     0.10000000E+002                4
 RTBSE| Simulation step         Convergence     Electron number  ETRS Iterations
 RTBSE|             115     0.99177338E-007     0.10000000E+002                4
 RTBSE| Simulation step         Convergence     Electron number  ETRS Iterations
 RTBSE|             116     0.18055207E-007     0.10000000E+002                5
 RTBSE| Simulation step         Convergence     Electron number  ETRS Iterations
 RTBSE|             117     0.18284102E-007     0.10000000E+002                5
 RTBSE| Simulation step         Convergence     Electron number  ETRS Iterations
 RTBSE|             118     0.99010252E-007     0.10000000E+002                4
 RTBSE| Simulation step         Convergence     Electron number  ETRS Iterations
 RTBSE|             119     0.95849908E-007     0.10000000E+002                4
 RTBSE| Simulation step         Convergence     Electron number  ETRS Iterations
 RTBSE|             120     0.91204524E-007     0.10000000E+002                4
 RTBSE| Simulation step         Convergence     Electron number  ETRS Iterations
 RTBSE|             121     0.91580831E-007     0.10000000E+002                4
 RTBSE| Simulation step         Convergence     Electron number  ETRS Iterations
 RTBSE|             122     0.91611331E-007     0.10000000E+002                4
 RTBSE| Simulation step         Convergence     Electron number  ETRS Iterations
 RTBSE|             123     0.90393036E-007     0.10000000E+002                4
 RTBSE| Simulation step         Convergence     Electron number  ETRS Iterations
 RTBSE|             124     0.87325402E-007     0.10000000E+002                4
 RTBSE| Simulation step         Convergence     Electron number  ETRS Iterations
 RTBSE|             125     0.82470958E-007     0.10000000E+002                4
 RTBSE| Simulation step         Convergence     Electron number  ETRS Iterations
 RTBSE|             126     0.76238994E-007     0.10000000E+002                4
 RTBSE| Simulation step         Convergence     Electron number  ETRS Iterations
 RTBSE|             127     0.69917744E-007     0.10000000E+002                4
 RTBSE| Simulation step         Convergence     Electron number  ETRS Iterations
 RTBSE|             128     0.62964646E-007     0.10000000E+002                4
 RTBSE| Simulation step         Convergence     Electron number  ETRS Iterations
 RTBSE|             129     0.54487769E-007     0.10000000E+002                4
 RTBSE| Simulation step         Convergence     Electron number  ETRS Iterations
 RTBSE|             130     0.43961313E-007     0.10000000E+002                4
 RTBSE| Simulation step         Convergence     Electron number  ETRS Iterations
 RTBSE|             131     0.49445453E-007     0.10000000E+002                4
 RTBSE| Simulation step         Convergence     Electron number  ETRS Iterations
 RTBSE|             132     0.64027225E-007     0.10000000E+002                4
 RTBSE| Simulation step         Convergence     Electron number  ETRS Iterations
 RTBSE|             133     0.79346132E-007     0.10000000E+002                4
 RTBSE| Simulation step         Convergence     Electron number  ETRS Iterations
 RTBSE|             134     0.94882145E-007     0.10000000E+002                4
 RTBSE| Simulation step         Convergence     Electron number  ETRS Iterations
 RTBSE|             135     0.17319360E-007     0.10000000E+002                5
 RTBSE| Simulation step         Convergence     Electron number  ETRS Iterations
 RTBSE|             136     0.20272633E-007     0.10000000E+002                5
 RTBSE| Simulation step         Convergence     Electron number  ETRS Iterations
 RTBSE|             137     0.22988769E-007     0.10000000E+002                5
 RTBSE| Simulation step         Convergence     Electron number  ETRS Iterations
 RTBSE|             138     0.25377302E-007     0.10000000E+002                5
 RTBSE| Simulation step         Convergence     Electron number  ETRS Iterations
 RTBSE|             139     0.27361309E-007     0.10000000E+002                5
 RTBSE| Simulation step         Convergence     Electron number  ETRS Iterations
 RTBSE|             140     0.28938840E-007     0.10000000E+002                5
 RTBSE| Simulation step         Convergence     Electron number  ETRS Iterations
 RTBSE|             141     0.30118971E-007     0.10000000E+002                5
 RTBSE| Simulation step         Convergence     Electron number  ETRS Iterations
 RTBSE|             142     0.30907297E-007     0.10000000E+002                5
 RTBSE| Simulation step         Convergence     Electron number  ETRS Iterations
 RTBSE|             143     0.31250315E-007     0.10000000E+002                5
 RTBSE| Simulation step         Convergence     Electron number  ETRS Iterations
 RTBSE|             144     0.31062873E-007     0.10000000E+002                5
 RTBSE| Simulation step         Convergence     Electron number  ETRS Iterations
 RTBSE|             145     0.30293693E-007     0.10000000E+002                5
 RTBSE| Simulation step         Convergence     Electron number  ETRS Iterations
 RTBSE|             146     0.28974177E-007     0.10000000E+002                5
 RTBSE| Simulation step         Convergence     Electron number  ETRS Iterations
 RTBSE|             147     0.27200918E-007     0.10000000E+002                5
 RTBSE| Simulation step         Convergence     Electron number  ETRS Iterations
 RTBSE|             148     0.25065446E-007     0.10000000E+002                5
 RTBSE| Simulation step         Convergence     Electron number  ETRS Iterations
 RTBSE|             149     0.22486669E-007     0.10000000E+002                5
 RTBSE| Simulation step         Convergence     Electron number  ETRS Iterations
 RTBSE|             150     0.19431965E-007     0.10000000E+002                5
 RTBSE| Simulation step         Convergence     Electron number  ETRS Iterations
 RTBSE|             151     0.17108482E-007     0.10000000E+002                5
 RTBSE| Simulation step         Convergence     Electron number  ETRS Iterations
 RTBSE|             152     0.15857766E-007     0.10000000E+002                5
 RTBSE| Simulation step         Convergence     Electron number  ETRS Iterations
 RTBSE|             153     0.14487163E-007     0.10000000E+002                5
 RTBSE| Simulation step         Convergence     Electron number  ETRS Iterations
 RTBSE|             154     0.96221360E-007     0.10000000E+002                4
 RTBSE| Simulation step         Convergence     Electron number  ETRS Iterations
 RTBSE|             155     0.77235368E-007     0.10000000E+002                4
 RTBSE| Simulation step         Convergence     Electron number  ETRS Iterations
 RTBSE|             156     0.75382612E-007     0.10000000E+002                4
 RTBSE| Simulation step         Convergence     Electron number  ETRS Iterations
 RTBSE|             157     0.99338873E-007     0.10000000E+002                4
 RTBSE| Simulation step         Convergence     Electron number  ETRS Iterations
 RTBSE|             158     0.17649653E-007     0.10000000E+002                5
 RTBSE| Simulation step         Convergence     Electron number  ETRS Iterations
 RTBSE|             159     0.22712669E-007     0.10000000E+002                5
 RTBSE| Simulation step         Convergence     Electron number  ETRS Iterations
 RTBSE|             160     0.27517691E-007     0.10000000E+002                5
 RTBSE| Simulation step         Convergence     Electron number  ETRS Iterations
 RTBSE|             161     0.32011215E-007     0.10000000E+002                5
 RTBSE| Simulation step         Convergence     Electron number  ETRS Iterations
 RTBSE|             162     0.36104693E-007     0.10000000E+002                5
 RTBSE| Simulation step         Convergence     Electron number  ETRS Iterations
 RTBSE|             163     0.39746509E-007     0.10000000E+002                5
 RTBSE| Simulation step         Convergence     Electron number  ETRS Iterations
 RTBSE|             164     0.42901826E-007     0.10000000E+002                5
 RTBSE| Simulation step         Convergence     Electron number  ETRS Iterations
 RTBSE|             165     0.45525278E-007     0.10000000E+002                5
 RTBSE| Simulation step         Convergence     Electron number  ETRS Iterations
 RTBSE|             166     0.47515663E-007     0.10000000E+002                5
 RTBSE| Simulation step         Convergence     Electron number  ETRS Iterations
 RTBSE|             167     0.48733015E-007     0.10000000E+002                5
 RTBSE| Simulation step         Convergence     Electron number  ETRS Iterations
 RTBSE|             168     0.49202090E-007     0.10000000E+002                5
 RTBSE| Simulation step         Convergence     Electron number  ETRS Iterations
 RTBSE|             169     0.48979393E-007     0.10000000E+002                5
 RTBSE| Simulation step         Convergence     Electron number  ETRS Iterations
 RTBSE|             170     0.48081195E-007     0.10000000E+002                5
 RTBSE| Simulation step         Convergence     Electron number  ETRS Iterations
 RTBSE|             171     0.46456694E-007     0.10000000E+002                5
 RTBSE| Simulation step         Convergence     Electron number  ETRS Iterations
 RTBSE|             172     0.43906966E-007     0.10000000E+002                5
 RTBSE| Simulation step         Convergence     Electron number  ETRS Iterations
 RTBSE|             173     0.40531656E-007     0.10000000E+002                5
 RTBSE| Simulation step         Convergence     Electron number  ETRS Iterations
 RTBSE|             174     0.36449177E-007     0.10000000E+002                5
 RTBSE| Simulation step         Convergence     Electron number  ETRS Iterations
 RTBSE|             175     0.31766685E-007     0.10000000E+002                5
 RTBSE| Simulation step         Convergence     Electron number  ETRS Iterations
 RTBSE|             176     0.26959360E-007     0.10000000E+002                5
 RTBSE| Simulation step         Convergence     Electron number  ETRS Iterations
 RTBSE|             177     0.25191342E-007     0.10000000E+002                5
 RTBSE| Simulation step         Convergence     Electron number  ETRS Iterations
 RTBSE|             178     0.22915399E-007     0.10000000E+002                5
 RTBSE| Simulation step         Convergence     Electron number  ETRS Iterations
 RTBSE|             179     0.20596181E-007     0.10000000E+002                5
 RTBSE| Simulation step         Convergence     Electron number  ETRS Iterations
 RTBSE|             180     0.18362353E-007     0.10000000E+002                5
 RTBSE| Simulation step         Convergence     Electron number  ETRS Iterations
 RTBSE|             181     0.15892884E-007     0.10000000E+002                5
 RTBSE| Simulation step         Convergence     Electron number  ETRS Iterations
 RTBSE|             182     0.16155989E-007     0.10000000E+002                5
 RTBSE| Simulation step         Convergence     Electron number  ETRS Iterations
 RTBSE|             183     0.23734915E-007     0.10000000E+002                5
 RTBSE| Simulation step         Convergence     Electron number  ETRS Iterations
 RTBSE|             184     0.31106661E-007     0.10000000E+002                5
 RTBSE| Simulation step         Convergence     Electron number  ETRS Iterations
 RTBSE|             185     0.38011074E-007     0.10000000E+002                5
 RTBSE| Simulation step         Convergence     Electron number  ETRS Iterations
 RTBSE|             186     0.44288566E-007     0.10000000E+002                5
 RTBSE| Simulation step         Convergence     Electron number  ETRS Iterations
 RTBSE|             187     0.49987950E-007     0.10000000E+002                5
 RTBSE| Simulation step         Convergence     Electron number  ETRS Iterations
 RTBSE|             188     0.55118941E-007     0.10000000E+002                5
 RTBSE| Simulation step         Convergence     Electron number  ETRS Iterations
 RTBSE|             189     0.59571383E-007     0.10000000E+002                5
 RTBSE| Simulation step         Convergence     Electron number  ETRS Iterations
 RTBSE|             190     0.63239831E-007     0.10000000E+002                5
 RTBSE| Simulation step         Convergence     Electron number  ETRS Iterations
 RTBSE|             191     0.65983787E-007     0.10000000E+002                5
 RTBSE| Simulation step         Convergence     Electron number  ETRS Iterations
 RTBSE|             192     0.67806031E-007     0.10000000E+002                5
 RTBSE| Simulation step         Convergence     Electron number  ETRS Iterations
 RTBSE|             193     0.68708840E-007     0.10000000E+002                5
 RTBSE| Simulation step         Convergence     Electron number  ETRS Iterations
 RTBSE|             194     0.68592525E-007     0.10000000E+002                5
 RTBSE| Simulation step         Convergence     Electron number  ETRS Iterations
 RTBSE|             195     0.67389401E-007     0.10000000E+002                5
 RTBSE| Simulation step         Convergence     Electron number  ETRS Iterations
 RTBSE|             196     0.65179467E-007     0.10000000E+002                5
 RTBSE| Simulation step         Convergence     Electron number  ETRS Iterations
 RTBSE|             197     0.61985289E-007     0.10000000E+002                5
 RTBSE| Simulation step         Convergence     Electron number  ETRS Iterations
 RTBSE|             198     0.57870539E-007     0.10000000E+002                5
 RTBSE| Simulation step         Convergence     Electron number  ETRS Iterations
 RTBSE|             199     0.52751465E-007     0.10000000E+002                5
 RTBSE| Simulation step         Convergence     Electron number  ETRS Iterations
 RTBSE|             200     0.46572521E-007     0.10000000E+002                5
 RTBSE| Simulation step         Convergence     Electron number  ETRS Iterations
 RTBSE|             201     0.39509786E-007     0.10000000E+002                5
 RTBSE| Simulation step         Convergence     Electron number  ETRS Iterations
 RTBSE|             202     0.35750795E-007     0.10000000E+002                5
 RTBSE| Simulation step         Convergence     Electron number  ETRS Iterations
 RTBSE|             203     0.32953367E-007     0.10000000E+002                5
 RTBSE| Simulation step         Convergence     Electron number  ETRS Iterations
 RTBSE|             204     0.30122929E-007     0.10000000E+002                5
 RTBSE| Simulation step         Convergence     Electron number  ETRS Iterations
 RTBSE|             205     0.27544366E-007     0.10000000E+002                5
 RTBSE| Simulation step         Convergence     Electron number  ETRS Iterations
 RTBSE|             206     0.24407794E-007     0.10000000E+002                5
 RTBSE| Simulation step         Convergence     Electron number  ETRS Iterations
 RTBSE|             207     0.20869398E-007     0.10000000E+002                5
 RTBSE| Simulation step         Convergence     Electron number  ETRS Iterations
 RTBSE|             208     0.26663001E-007     0.10000000E+002                5
 RTBSE| Simulation step         Convergence     Electron number  ETRS Iterations
 RTBSE|             209     0.36965419E-007     0.10000000E+002                5
 RTBSE| Simulation step         Convergence     Electron number  ETRS Iterations
 RTBSE|             210     0.47203820E-007     0.10000000E+002                5
 RTBSE| Simulation step         Convergence     Electron number  ETRS Iterations
 RTBSE|             211     0.57163651E-007     0.10000000E+002                5
 RTBSE| Simulation step         Convergence     Electron number  ETRS Iterations
 RTBSE|             212     0.66577027E-007     0.10000000E+002                5
 RTBSE| Simulation step         Convergence     Electron number  ETRS Iterations
 RTBSE|             213     0.75137740E-007     0.10000000E+002                5
 RTBSE| Simulation step         Convergence     Electron number  ETRS Iterations
 RTBSE|             214     0.82639226E-007     0.10000000E+002                5
 RTBSE| Simulation step         Convergence     Electron number  ETRS Iterations
 RTBSE|             215     0.89095338E-007     0.10000000E+002                5
 RTBSE| Simulation step         Convergence     Electron number  ETRS Iterations
 RTBSE|             216     0.94335031E-007     0.10000000E+002                5
 RTBSE| Simulation step         Convergence     Electron number  ETRS Iterations
 RTBSE|             217     0.98220760E-007     0.10000000E+002                5
 RTBSE| Simulation step         Convergence     Electron number  ETRS Iterations
 RTBSE|             218     0.12537539E-007     0.10000000E+002                6
 RTBSE| Simulation step         Convergence     Electron number  ETRS Iterations
 RTBSE|             219     0.12593631E-007     0.10000000E+002                6
 RTBSE| Simulation step         Convergence     Electron number  ETRS Iterations
 RTBSE|             220     0.12526033E-007     0.10000000E+002                6
 RTBSE| Simulation step         Convergence     Electron number  ETRS Iterations
 RTBSE|             221     0.98406440E-007     0.10000000E+002                5
 RTBSE| Simulation step         Convergence     Electron number  ETRS Iterations
 RTBSE|             222     0.94691489E-007     0.10000000E+002                5
 RTBSE| Simulation step         Convergence     Electron number  ETRS Iterations
 RTBSE|             223     0.89485908E-007     0.10000000E+002                5
 RTBSE| Simulation step         Convergence     Electron number  ETRS Iterations
 RTBSE|             224     0.82828627E-007     0.10000000E+002                5
 RTBSE| Simulation step         Convergence     Electron number  ETRS Iterations
 RTBSE|             225     0.74730240E-007     0.10000000E+002                5
 RTBSE| Simulation step         Convergence     Electron number  ETRS Iterations
 RTBSE|             226     0.65214278E-007     0.10000000E+002                5
 RTBSE| Simulation step         Convergence     Electron number  ETRS Iterations
 RTBSE|             227     0.54624402E-007     0.10000000E+002                5
 RTBSE| Simulation step         Convergence     Electron number  ETRS Iterations
 RTBSE|             228     0.50612120E-007     0.10000000E+002                5
 RTBSE| Simulation step         Convergence     Electron number  ETRS Iterations
 RTBSE|             229     0.46046858E-007     0.10000000E+002                5
 RTBSE| Simulation step         Convergence     Electron number  ETRS Iterations
 RTBSE|             230     0.41420886E-007     0.10000000E+002                5
 RTBSE| Simulation step         Convergence     Electron number  ETRS Iterations
 RTBSE|             231     0.37127298E-007     0.10000000E+002                5
 RTBSE| Simulation step         Convergence     Electron number  ETRS Iterations
 RTBSE|             232     0.32161327E-007     0.10000000E+002                5
 RTBSE| Simulation step         Convergence     Electron number  ETRS Iterations
 RTBSE|             233     0.27568228E-007     0.10000000E+002                5
 RTBSE| Simulation step         Convergence     Electron number  ETRS Iterations
 RTBSE|             234     0.41124831E-007     0.10000000E+002                5
 RTBSE| Simulation step         Convergence     Electron number  ETRS Iterations
 RTBSE|             235     0.54887656E-007     0.10000000E+002                5
 RTBSE| Simulation step         Convergence     Electron number  ETRS Iterations
 RTBSE|             236     0.67997788E-007     0.10000000E+002                5
 RTBSE| Simulation step         Convergence     Electron number  ETRS Iterations
 RTBSE|             237     0.80305803E-007     0.10000000E+002                5
 RTBSE| Simulation step         Convergence     Electron number  ETRS Iterations
 RTBSE|             238     0.91641918E-007     0.10000000E+002                5
 RTBSE| Simulation step         Convergence     Electron number  ETRS Iterations
 RTBSE|             239     0.13309387E-007     0.10000000E+002                6
 RTBSE| Simulation step         Convergence     Electron number  ETRS Iterations
 RTBSE|             240     0.14335562E-007     0.10000000E+002                6
 RTBSE| Simulation step         Convergence     Electron number  ETRS Iterations
 RTBSE|             241     0.15200000E-007     0.10000000E+002                6
 RTBSE| Simulation step         Convergence     Electron number  ETRS Iterations
 RTBSE|             242     0.15828523E-007     0.10000000E+002                6
 RTBSE| Simulation step         Convergence     Electron number  ETRS Iterations
 RTBSE|             243     0.16256697E-007     0.10000000E+002                6
 RTBSE| Simulation step         Convergence     Electron number  ETRS Iterations
 RTBSE|             244     0.16451936E-007     0.10000000E+002                6
 RTBSE| Simulation step         Convergence     Electron number  ETRS Iterations
 RTBSE|             245     0.16432887E-007     0.10000000E+002                6
 RTBSE| Simulation step         Convergence     Electron number  ETRS Iterations
 RTBSE|             246     0.16226591E-007     0.10000000E+002                6
 RTBSE| Simulation step         Convergence     Electron number  ETRS Iterations
 RTBSE|             247     0.16577832E-007     0.10000000E+002                6
 RTBSE| Simulation step         Convergence     Electron number  ETRS Iterations
 RTBSE|             248     0.16710517E-007     0.10000000E+002                6
 RTBSE| Simulation step         Convergence     Electron number  ETRS Iterations
 RTBSE|             249     0.16605069E-007     0.10000000E+002                6
 RTBSE| Simulation step         Convergence     Electron number  ETRS Iterations
 RTBSE|             250     0.16274014E-007     0.10000000E+002                6
 RTBSE| Simulation step         Convergence     Electron number  ETRS Iterations
 RTBSE|             251     0.91557628E-007     0.10000000E+002                5
 RTBSE| Simulation step         Convergence     Electron number  ETRS Iterations
 RTBSE|             252     0.79422225E-007     0.10000000E+002                5
 RTBSE| Simulation step         Convergence     Electron number  ETRS Iterations
 RTBSE|             253     0.69888351E-007     0.10000000E+002                5
 RTBSE| Simulation step         Convergence     Electron number  ETRS Iterations
 RTBSE|             254     0.64553313E-007     0.10000000E+002                5
 RTBSE| Simulation step         Convergence     Electron number  ETRS Iterations
 RTBSE|             255     0.58625129E-007     0.10000000E+002                5
 RTBSE| Simulation step         Convergence     Electron number  ETRS Iterations
 RTBSE|             256     0.53984469E-007     0.10000000E+002                5
 RTBSE| Simulation step         Convergence     Electron number  ETRS Iterations
 RTBSE|             257     0.48591955E-007     0.10000000E+002                5
 RTBSE| Simulation step         Convergence     Electron number  ETRS Iterations
 RTBSE|             258     0.42324163E-007     0.10000000E+002                5
 RTBSE| Simulation step         Convergence     Electron number  ETRS Iterations
 RTBSE|             259     0.39882110E-007     0.10000000E+002                5
 RTBSE| Simulation step         Convergence     Electron number  ETRS Iterations
 RTBSE|             260     0.59568443E-007     0.10000000E+002                5
 RTBSE| Simulation step         Convergence     Electron number  ETRS Iterations
 RTBSE|             261     0.79035794E-007     0.10000000E+002                5
 RTBSE| Simulation step         Convergence     Electron number  ETRS Iterations
 RTBSE|             262     0.97923400E-007     0.10000000E+002                5
 RTBSE| Simulation step         Convergence     Electron number  ETRS Iterations
 RTBSE|             263     0.15101315E-007     0.10000000E+002                6
 RTBSE| Simulation step         Convergence     Electron number  ETRS Iterations
 RTBSE|             264     0.17154389E-007     0.10000000E+002                6
 RTBSE| Simulation step         Convergence     Electron number  ETRS Iterations
 RTBSE|             265     0.19011114E-007     0.10000000E+002                6
 RTBSE| Simulation step         Convergence     Electron number  ETRS Iterations
 RTBSE|             266     0.20641287E-007     0.10000000E+002                6
 RTBSE| Simulation step         Convergence     Electron number  ETRS Iterations
 RTBSE|             267     0.21987021E-007     0.10000000E+002                6
 RTBSE| Simulation step         Convergence     Electron number  ETRS Iterations
 RTBSE|             268     0.23029724E-007     0.10000000E+002                6
 RTBSE| Simulation step         Convergence     Electron number  ETRS Iterations
 RTBSE|             269     0.23777565E-007     0.10000000E+002                6
 RTBSE| Simulation step         Convergence     Electron number  ETRS Iterations
 RTBSE|             270     0.24153991E-007     0.10000000E+002                6
 RTBSE| Simulation step         Convergence     Electron number  ETRS Iterations
 RTBSE|             271     0.24141997E-007     0.10000000E+002                6
 RTBSE| Simulation step         Convergence     Electron number  ETRS Iterations
 RTBSE|             272     0.24801207E-007     0.10000000E+002                6
 RTBSE| Simulation step         Convergence     Electron number  ETRS Iterations
 RTBSE|             273     0.25240883E-007     0.10000000E+002                6
 RTBSE| Simulation step         Convergence     Electron number  ETRS Iterations
 RTBSE|             274     0.25270255E-007     0.10000000E+002                6
 RTBSE| Simulation step         Convergence     Electron number  ETRS Iterations
 RTBSE|             275     0.24874629E-007     0.10000000E+002                6
 RTBSE| Simulation step         Convergence     Electron number  ETRS Iterations
 RTBSE|             276     0.24024743E-007     0.10000000E+002                6
 RTBSE| Simulation step         Convergence     Electron number  ETRS Iterations
 RTBSE|             277     0.22750923E-007     0.10000000E+002                6
 RTBSE| Simulation step         Convergence     Electron number  ETRS Iterations
 RTBSE|             278     0.21089561E-007     0.10000000E+002                6
 RTBSE| Simulation step         Convergence     Electron number  ETRS Iterations
 RTBSE|             279     0.97095905E-007     0.10000000E+002                5
 RTBSE| Simulation step         Convergence     Electron number  ETRS Iterations
 RTBSE|             280     0.87757015E-007     0.10000000E+002                5
 RTBSE| Simulation step         Convergence     Electron number  ETRS Iterations
 RTBSE|             281     0.77551546E-007     0.10000000E+002                5
 RTBSE| Simulation step         Convergence     Electron number  ETRS Iterations
 RTBSE|             282     0.68624395E-007     0.10000000E+002                5
 RTBSE| Simulation step         Convergence     Electron number  ETRS Iterations
 RTBSE|             283     0.59070674E-007     0.10000000E+002                5
 RTBSE| Simulation step         Convergence     Electron number  ETRS Iterations
 RTBSE|             284     0.49750625E-007     0.10000000E+002                5
 RTBSE| Simulation step         Convergence     Electron number  ETRS Iterations
 RTBSE|             285     0.65647511E-007     0.10000000E+002                5
 RTBSE| Simulation step         Convergence     Electron number  ETRS Iterations
 RTBSE|             286     0.89826829E-007     0.10000000E+002                5
 RTBSE| Simulation step         Convergence     Electron number  ETRS Iterations
 RTBSE|             287     0.15413743E-007     0.10000000E+002                6
 RTBSE| Simulation step         Convergence     Electron number  ETRS Iterations
 RTBSE|             288     0.17990381E-007     0.10000000E+002                6
 RTBSE| Simulation step         Convergence     Electron number  ETRS Iterations
 RTBSE|             289     0.20326294E-007     0.10000000E+002                6
 RTBSE| Simulation step         Convergence     Electron number  ETRS Iterations
 RTBSE|             290     0.22402532E-007     0.10000000E+002                6
 RTBSE| Simulation step         Convergence     Electron number  ETRS Iterations
 RTBSE|             291     0.24197843E-007     0.10000000E+002                6
 RTBSE| Simulation step         Convergence     Electron number  ETRS Iterations
 RTBSE|             292     0.25656082E-007     0.10000000E+002                6
 RTBSE| Simulation step         Convergence     Electron number  ETRS Iterations
 RTBSE|             293     0.26788612E-007     0.10000000E+002                6
 RTBSE| Simulation step         Convergence     Electron number  ETRS Iterations
 RTBSE|             294     0.27516530E-007     0.10000000E+002                6
 RTBSE| Simulation step         Convergence     Electron number  ETRS Iterations
 RTBSE|             295     0.27862314E-007     0.10000000E+002                6
 RTBSE| Simulation step         Convergence     Electron number  ETRS Iterations
 RTBSE|             296     0.27847389E-007     0.10000000E+002                6
 RTBSE| Simulation step         Convergence     Electron number  ETRS Iterations
 RTBSE|             297     0.27462170E-007     0.10000000E+002                6
 RTBSE| Simulation step         Convergence     Electron number  ETRS Iterations
 RTBSE|             298     0.27786304E-007     0.10000000E+002                6
 RTBSE| Simulation step         Convergence     Electron number  ETRS Iterations
 RTBSE|             299     0.28089134E-007     0.10000000E+002                6
 RTBSE| Simulation step         Convergence     Electron number  ETRS Iterations
 RTBSE|             300     0.28017412E-007     0.10000000E+002                6
 RTBSE| Simulation step         Convergence     Electron number  ETRS Iterations
 RTBSE|             301     0.27575235E-007     0.10000000E+002                6
 RTBSE| Simulation step         Convergence     Electron number  ETRS Iterations
 RTBSE|             302     0.26766806E-007     0.10000000E+002                6
 RTBSE| Simulation step         Convergence     Electron number  ETRS Iterations
 RTBSE|             303     0.25570474E-007     0.10000000E+002                6
 RTBSE| Simulation step         Convergence     Electron number  ETRS Iterations
 RTBSE|             304     0.23972514E-007     0.10000000E+002                6
 RTBSE| Simulation step         Convergence     Electron number  ETRS Iterations
 RTBSE|             305     0.21987013E-007     0.10000000E+002                6
 RTBSE| Simulation step         Convergence     Electron number  ETRS Iterations
 RTBSE|             306     0.19588471E-007     0.10000000E+002                6
 RTBSE| Simulation step         Convergence     Electron number  ETRS Iterations
 RTBSE|             307     0.94157039E-007     0.10000000E+002                5
 RTBSE| Simulation step         Convergence     Electron number  ETRS Iterations
 RTBSE|             308     0.85016159E-007     0.10000000E+002                5
 RTBSE| Simulation step         Convergence     Electron number  ETRS Iterations
 RTBSE|             309     0.74277411E-007     0.10000000E+002                5
 RTBSE| Simulation step         Convergence     Electron number  ETRS Iterations
 RTBSE|             310     0.64267632E-007     0.10000000E+002                5
 RTBSE| Simulation step         Convergence     Electron number  ETRS Iterations
 RTBSE|             311     0.89402762E-007     0.10000000E+002                5
 RTBSE| Simulation step         Convergence     Electron number  ETRS Iterations
 RTBSE|             312     0.17122948E-007     0.10000000E+002                6
 RTBSE| Simulation step         Convergence     Electron number  ETRS Iterations
 RTBSE|             313     0.21019264E-007     0.10000000E+002                6
 RTBSE| Simulation step         Convergence     Electron number  ETRS Iterations
 RTBSE|             314     0.24838784E-007     0.10000000E+002                6
 RTBSE| Simulation step         Convergence     Electron number  ETRS Iterations
 RTBSE|             315     0.28422492E-007     0.10000000E+002                6
 RTBSE| Simulation step         Convergence     Electron number  ETRS Iterations
 RTBSE|             316     0.31736982E-007     0.10000000E+002                6
 RTBSE| Simulation step         Convergence     Electron number  ETRS Iterations
 RTBSE|             317     0.34643032E-007     0.10000000E+002                6
 RTBSE| Simulation step         Convergence     Electron number  ETRS Iterations
 RTBSE|             318     0.37096072E-007     0.10000000E+002                6
 RTBSE| Simulation step         Convergence     Electron number  ETRS Iterations
 RTBSE|             319     0.39008053E-007     0.10000000E+002                6
 RTBSE| Simulation step         Convergence     Electron number  ETRS Iterations
 RTBSE|             320     0.40303881E-007     0.10000000E+002                6
 RTBSE| Simulation step         Convergence     Electron number  ETRS Iterations
 RTBSE|             321     0.40941947E-007     0.10000000E+002                6
 RTBSE| Simulation step         Convergence     Electron number  ETRS Iterations
 RTBSE|             322     0.40895301E-007     0.10000000E+002                6
 RTBSE| Simulation step         Convergence     Electron number  ETRS Iterations
 RTBSE|             323     0.41743663E-007     0.10000000E+002                6
 RTBSE| Simulation step         Convergence     Electron number  ETRS Iterations
 RTBSE|             324     0.42371895E-007     0.10000000E+002                6
 RTBSE| Simulation step         Convergence     Electron number  ETRS Iterations
 RTBSE|             325     0.42274325E-007     0.10000000E+002                6
 RTBSE| Simulation step         Convergence     Electron number  ETRS Iterations
 RTBSE|             326     0.41470983E-007     0.10000000E+002                6
 RTBSE| Simulation step         Convergence     Electron number  ETRS Iterations
 RTBSE|             327     0.39956395E-007     0.10000000E+002                6
 RTBSE| Simulation step         Convergence     Electron number  ETRS Iterations
 RTBSE|             328     0.37775055E-007     0.10000000E+002                6
 RTBSE| Simulation step         Convergence     Electron number  ETRS Iterations
 RTBSE|             329     0.34955116E-007     0.10000000E+002                6
 RTBSE| Simulation step         Convergence     Electron number  ETRS Iterations
 RTBSE|             330     0.31571272E-007     0.10000000E+002                6
 RTBSE| Simulation step         Convergence     Electron number  ETRS Iterations
 RTBSE|             331     0.27687667E-007     0.10000000E+002                6
 RTBSE| Simulation step         Convergence     Electron number  ETRS Iterations
 RTBSE|             332     0.23385524E-007     0.10000000E+002                6
 RTBSE| Simulation step         Convergence     Electron number  ETRS Iterations
 RTBSE|             333     0.18741452E-007     0.10000000E+002                6
 RTBSE| Simulation step         Convergence     Electron number  ETRS Iterations
 RTBSE|             334     0.95005850E-007     0.10000000E+002                5
 RTBSE| Simulation step         Convergence     Electron number  ETRS Iterations
 RTBSE|             335     0.78749437E-007     0.10000000E+002                5
 RTBSE| Simulation step         Convergence     Electron number  ETRS Iterations
 RTBSE|             336     0.91788939E-007     0.10000000E+002                5
 RTBSE| Simulation step         Convergence     Electron number  ETRS Iterations
 RTBSE|             337     0.18194934E-007     0.10000000E+002                6
 RTBSE| Simulation step         Convergence     Electron number  ETRS Iterations
 RTBSE|             338     0.22351894E-007     0.10000000E+002                6
 RTBSE| Simulation step         Convergence     Electron number  ETRS Iterations
 RTBSE|             339     0.26237498E-007     0.10000000E+002                6
 RTBSE| Simulation step         Convergence     Electron number  ETRS Iterations
 RTBSE|             340     0.29764986E-007     0.10000000E+002                6
 RTBSE| Simulation step         Convergence     Electron number  ETRS Iterations
 RTBSE|             341     0.32907445E-007     0.10000000E+002                6
 RTBSE| Simulation step         Convergence     Electron number  ETRS Iterations
 RTBSE|             342     0.35549560E-007     0.10000000E+002                6
 RTBSE| Simulation step         Convergence     Electron number  ETRS Iterations
 RTBSE|             343     0.37684580E-007     0.10000000E+002                6
 RTBSE| Simulation step         Convergence     Electron number  ETRS Iterations
 RTBSE|             344     0.39309130E-007     0.10000000E+002                6
 RTBSE| Simulation step         Convergence     Electron number  ETRS Iterations
 RTBSE|             345     0.40431195E-007     0.10000000E+002                6
 RTBSE| Simulation step         Convergence     Electron number  ETRS Iterations
 RTBSE|             346     0.41003670E-007     0.10000000E+002                6
 RTBSE| Simulation step         Convergence     Electron number  ETRS Iterations
 RTBSE|             347     0.41040644E-007     0.10000000E+002                6
 RTBSE| Simulation step         Convergence     Electron number  ETRS Iterations
 RTBSE|             348     0.40594343E-007     0.10000000E+002                6
 RTBSE| Simulation step         Convergence     Electron number  ETRS Iterations
 RTBSE|             349     0.40243408E-007     0.10000000E+002                6
 RTBSE| Simulation step         Convergence     Electron number  ETRS Iterations
 RTBSE|             350     0.40833739E-007     0.10000000E+002                6
 RTBSE| Simulation step         Convergence     Electron number  ETRS Iterations
 RTBSE|             351     0.40968168E-007     0.10000000E+002                6
 RTBSE| Simulation step         Convergence     Electron number  ETRS Iterations
 RTBSE|             352     0.40622722E-007     0.10000000E+002                6
 RTBSE| Simulation step         Convergence     Electron number  ETRS Iterations
 RTBSE|             353     0.39754974E-007     0.10000000E+002                6
 RTBSE| Simulation step         Convergence     Electron number  ETRS Iterations
 RTBSE|             354     0.38352042E-007     0.10000000E+002                6
 RTBSE| Simulation step         Convergence     Electron number  ETRS Iterations
 RTBSE|             355     0.36372703E-007     0.10000000E+002                6
 RTBSE| Simulation step         Convergence     Electron number  ETRS Iterations
 RTBSE|             356     0.33785577E-007     0.10000000E+002                6
 RTBSE| Simulation step         Convergence     Electron number  ETRS Iterations
 RTBSE|             357     0.30572105E-007     0.10000000E+002                6
 RTBSE| Simulation step         Convergence     Electron number  ETRS Iterations
 RTBSE|             358     0.26724514E-007     0.10000000E+002                6
 RTBSE| Simulation step         Convergence     Electron number  ETRS Iterations
 RTBSE|             359     0.22254268E-007     0.10000000E+002                6
 RTBSE| Simulation step         Convergence     Electron number  ETRS Iterations
 RTBSE|             360     0.17168320E-007     0.10000000E+002                6
 RTBSE| Simulation step         Convergence     Electron number  ETRS Iterations
 RTBSE|             361     0.99750498E-007     0.10000000E+002                5
 RTBSE| Simulation step         Convergence     Electron number  ETRS Iterations
 RTBSE|             362     0.17502038E-007     0.10000000E+002                6
 RTBSE| Simulation step         Convergence     Electron number  ETRS Iterations
 RTBSE|             363     0.23240166E-007     0.10000000E+002                6
 RTBSE| Simulation step         Convergence     Electron number  ETRS Iterations
 RTBSE|             364     0.29226238E-007     0.10000000E+002                6
 RTBSE| Simulation step         Convergence     Electron number  ETRS Iterations
 RTBSE|             365     0.35199871E-007     0.10000000E+002                6
 RTBSE| Simulation step         Convergence     Electron number  ETRS Iterations
 RTBSE|             366     0.40973292E-007     0.10000000E+002                6
 RTBSE| Simulation step         Convergence     Electron number  ETRS Iterations
 RTBSE|             367     0.46341863E-007     0.10000000E+002                6
 RTBSE| Simulation step         Convergence     Electron number  ETRS Iterations
 RTBSE|             368     0.51159832E-007     0.10000000E+002                6
 RTBSE| Simulation step         Convergence     Electron number  ETRS Iterations
 RTBSE|             369     0.55259699E-007     0.10000000E+002                6
 RTBSE| Simulation step         Convergence     Electron number  ETRS Iterations
 RTBSE|             370     0.58445957E-007     0.10000000E+002                6
 RTBSE| Simulation step         Convergence     Electron number  ETRS Iterations
 RTBSE|             371     0.60718040E-007     0.10000000E+002                6
 RTBSE| Simulation step         Convergence     Electron number  ETRS Iterations
 RTBSE|             372     0.61956811E-007     0.10000000E+002                6
 RTBSE| Simulation step         Convergence     Electron number  ETRS Iterations
 RTBSE|             373     0.62157965E-007     0.10000000E+002                6
 RTBSE| Simulation step         Convergence     Electron number  ETRS Iterations
 RTBSE|             374     0.62619430E-007     0.10000000E+002                6
 RTBSE| Simulation step         Convergence     Electron number  ETRS Iterations
 RTBSE|             375     0.63649060E-007     0.10000000E+002                6
 RTBSE| Simulation step         Convergence     Electron number  ETRS Iterations
 RTBSE|             376     0.63559669E-007     0.10000000E+002                6
 RTBSE| Simulation step         Convergence     Electron number  ETRS Iterations
 RTBSE|             377     0.62392027E-007     0.10000000E+002                6
 RTBSE| Simulation step         Convergence     Electron number  ETRS Iterations
 RTBSE|             378     0.60180222E-007     0.10000000E+002                6
 RTBSE| Simulation step         Convergence     Electron number  ETRS Iterations
 RTBSE|             379     0.56954262E-007     0.10000000E+002                6
 RTBSE| Simulation step         Convergence     Electron number  ETRS Iterations
 RTBSE|             380     0.52761536E-007     0.10000000E+002                6
 RTBSE| Simulation step         Convergence     Electron number  ETRS Iterations
 RTBSE|             381     0.47736220E-007     0.10000000E+002                6
 RTBSE| Simulation step         Convergence     Electron number  ETRS Iterations
 RTBSE|             382     0.41987511E-007     0.10000000E+002                6
 RTBSE| Simulation step         Convergence     Electron number  ETRS Iterations
 RTBSE|             383     0.35667615E-007     0.10000000E+002                6
 RTBSE| Simulation step         Convergence     Electron number  ETRS Iterations
 RTBSE|             384     0.28909079E-007     0.10000000E+002                6
 RTBSE| Simulation step         Convergence     Electron number  ETRS Iterations
 RTBSE|             385     0.21842849E-007     0.10000000E+002                6
 RTBSE| Simulation step         Convergence     Electron number  ETRS Iterations
 RTBSE|             386     0.14614811E-007     0.10000000E+002                6
 RTBSE| Simulation step         Convergence     Electron number  ETRS Iterations
 RTBSE|             387     0.16822623E-007     0.10000000E+002                6
 RTBSE| Simulation step         Convergence     Electron number  ETRS Iterations
 RTBSE|             388     0.22528001E-007     0.10000000E+002                6
 RTBSE| Simulation step         Convergence     Electron number  ETRS Iterations
 RTBSE|             389     0.28224980E-007     0.10000000E+002                6
 RTBSE| Simulation step         Convergence     Electron number  ETRS Iterations
 RTBSE|             390     0.33627144E-007     0.10000000E+002                6
 RTBSE| Simulation step         Convergence     Electron number  ETRS Iterations
 RTBSE|             391     0.38491154E-007     0.10000000E+002                6
 RTBSE| Simulation step         Convergence     Electron number  ETRS Iterations
 RTBSE|             392     0.42795241E-007     0.10000000E+002                6
 RTBSE| Simulation step         Convergence     Electron number  ETRS Iterations
 RTBSE|             393     0.46446080E-007     0.10000000E+002                6
 RTBSE| Simulation step         Convergence     Electron number  ETRS Iterations
 RTBSE|             394     0.49445637E-007     0.10000000E+002                6
 RTBSE| Simulation step         Convergence     Electron number  ETRS Iterations
 RTBSE|             395     0.51791415E-007     0.10000000E+002                6
 RTBSE| Simulation step         Convergence     Electron number  ETRS Iterations
 RTBSE|             396     0.53424440E-007     0.10000000E+002                6
 RTBSE| Simulation step         Convergence     Electron number  ETRS Iterations
 RTBSE|             397     0.54391695E-007     0.10000000E+002                6
 RTBSE| Simulation step         Convergence     Electron number  ETRS Iterations
 RTBSE|             398     0.54730762E-007     0.10000000E+002                6
 RTBSE| Simulation step         Convergence     Electron number  ETRS Iterations
 RTBSE|             399     0.54436320E-007     0.10000000E+002                6
 RTBSE| Simulation step         Convergence     Electron number  ETRS Iterations
 RTBSE|             400     0.53549574E-007     0.10000000E+002                6
 RTBSE| Simulation step         Convergence     Electron number  ETRS Iterations
 RTBSE|             401     0.53874400E-007     0.10000000E+002                6
 RTBSE| Simulation step         Convergence     Electron number  ETRS Iterations
 RTBSE|             402     0.54562247E-007     0.10000000E+002                6
 RTBSE| Simulation step         Convergence     Electron number  ETRS Iterations
 RTBSE|             403     0.54641163E-007     0.10000000E+002                6
 RTBSE| Simulation step         Convergence     Electron number  ETRS Iterations
 RTBSE|             404     0.54099424E-007     0.10000000E+002                6
 RTBSE| Simulation step         Convergence     Electron number  ETRS Iterations
 RTBSE|             405     0.52862233E-007     0.10000000E+002                6
 RTBSE| Simulation step         Convergence     Electron number  ETRS Iterations
 RTBSE|             406     0.50859239E-007     0.10000000E+002                6
 RTBSE| Simulation step         Convergence     Electron number  ETRS Iterations
 RTBSE|             407     0.47989619E-007     0.10000000E+002                6
 RTBSE| Simulation step         Convergence     Electron number  ETRS Iterations
 RTBSE|             408     0.44203594E-007     0.10000000E+002                6
 RTBSE| Simulation step         Convergence     Electron number  ETRS Iterations
 RTBSE|             409     0.39425019E-007     0.10000000E+002                6
 RTBSE| Simulation step         Convergence     Electron number  ETRS Iterations
 RTBSE|             410     0.33670230E-007     0.10000000E+002                6
 RTBSE| Simulation step         Convergence     Electron number  ETRS Iterations
 RTBSE|             411     0.26954898E-007     0.10000000E+002                6
 RTBSE| Simulation step         Convergence     Electron number  ETRS Iterations
 RTBSE|             412     0.19318664E-007     0.10000000E+002                6
 RTBSE| Simulation step         Convergence     Electron number  ETRS Iterations
 RTBSE|             413     0.20782463E-007     0.10000000E+002                6
 RTBSE| Simulation step         Convergence     Electron number  ETRS Iterations
 RTBSE|             414     0.28717957E-007     0.10000000E+002                6
 RTBSE| Simulation step         Convergence     Electron number  ETRS Iterations
 RTBSE|             415     0.37264375E-007     0.10000000E+002                6
 RTBSE| Simulation step         Convergence     Electron number  ETRS Iterations
 RTBSE|             416     0.45947254E-007     0.10000000E+002                6
 RTBSE| Simulation step         Convergence     Electron number  ETRS Iterations
 RTBSE|             417     0.54377957E-007     0.10000000E+002                6
 RTBSE| Simulation step         Convergence     Electron number  ETRS Iterations
 RTBSE|             418     0.62273830E-007     0.10000000E+002                6
 RTBSE| Simulation step         Convergence     Electron number  ETRS Iterations
 RTBSE|             419     0.69357946E-007     0.10000000E+002                6
 RTBSE| Simulation step         Convergence     Electron number  ETRS Iterations
 RTBSE|             420     0.75468877E-007     0.10000000E+002                6
 RTBSE| Simulation step         Convergence     Electron number  ETRS Iterations
 RTBSE|             421     0.80324892E-007     0.10000000E+002                6
 RTBSE| Simulation step         Convergence     Electron number  ETRS Iterations
 RTBSE|             422     0.83816726E-007     0.10000000E+002                6
 RTBSE| Simulation step         Convergence     Electron number  ETRS Iterations
 RTBSE|             423     0.85852197E-007     0.10000000E+002                6
 RTBSE| Simulation step         Convergence     Electron number  ETRS Iterations
 RTBSE|             424     0.86320363E-007     0.10000000E+002                6
 RTBSE| Simulation step         Convergence     Electron number  ETRS Iterations
 RTBSE|             425     0.85719842E-007     0.10000000E+002                6
 RTBSE| Simulation step         Convergence     Electron number  ETRS Iterations
 RTBSE|             426     0.87210805E-007     0.10000000E+002                6
 RTBSE| Simulation step         Convergence     Electron number  ETRS Iterations
 RTBSE|             427     0.87146870E-007     0.10000000E+002                6
 RTBSE| Simulation step         Convergence     Electron number  ETRS Iterations
 RTBSE|             428     0.85543081E-007     0.10000000E+002                6
 RTBSE| Simulation step         Convergence     Electron number  ETRS Iterations
 RTBSE|             429     0.82429800E-007     0.10000000E+002                6
 RTBSE| Simulation step         Convergence     Electron number  ETRS Iterations
 RTBSE|             430     0.77925524E-007     0.10000000E+002                6
 RTBSE| Simulation step         Convergence     Electron number  ETRS Iterations
 RTBSE|             431     0.72166920E-007     0.10000000E+002                6
 RTBSE| Simulation step         Convergence     Electron number  ETRS Iterations
 RTBSE|             432     0.65312942E-007     0.10000000E+002                6
 RTBSE| Simulation step         Convergence     Electron number  ETRS Iterations
 RTBSE|             433     0.57521595E-007     0.10000000E+002                6
 RTBSE| Simulation step         Convergence     Electron number  ETRS Iterations
 RTBSE|             434     0.49003581E-007     0.10000000E+002                6
 RTBSE| Simulation step         Convergence     Electron number  ETRS Iterations
 RTBSE|             435     0.39960112E-007     0.10000000E+002                6
 RTBSE| Simulation step         Convergence     Electron number  ETRS Iterations
 RTBSE|             436     0.30607520E-007     0.10000000E+002                6
 RTBSE| Simulation step         Convergence     Electron number  ETRS Iterations
 RTBSE|             437     0.21146490E-007     0.10000000E+002                6
 RTBSE| Simulation step         Convergence     Electron number  ETRS Iterations
 RTBSE|             438     0.18683723E-007     0.10000000E+002                6
 RTBSE| Simulation step         Convergence     Electron number  ETRS Iterations
 RTBSE|             439     0.25718814E-007     0.10000000E+002                6
 RTBSE| Simulation step         Convergence     Electron number  ETRS Iterations
 RTBSE|             440     0.32884002E-007     0.10000000E+002                6
 RTBSE| Simulation step         Convergence     Electron number  ETRS Iterations
 RTBSE|             441     0.39620237E-007     0.10000000E+002                6
 RTBSE| Simulation step         Convergence     Electron number  ETRS Iterations
 RTBSE|             442     0.45701108E-007     0.10000000E+002                6
 RTBSE| Simulation step         Convergence     Electron number  ETRS Iterations
 RTBSE|             443     0.51086934E-007     0.10000000E+002                6
 RTBSE| Simulation step         Convergence     Electron number  ETRS Iterations
 RTBSE|             444     0.55632663E-007     0.10000000E+002                6
 RTBSE| Simulation step         Convergence     Electron number  ETRS Iterations
 RTBSE|             445     0.59347101E-007     0.10000000E+002                6
 RTBSE| Simulation step         Convergence     Electron number  ETRS Iterations
 RTBSE|             446     0.62222194E-007     0.10000000E+002                6
 RTBSE| Simulation step         Convergence     Electron number  ETRS Iterations
 RTBSE|             447     0.64324780E-007     0.10000000E+002                6
 RTBSE| Simulation step         Convergence     Electron number  ETRS Iterations
 RTBSE|             448     0.65713102E-007     0.10000000E+002                6
 RTBSE| Simulation step         Convergence     Electron number  ETRS Iterations
 RTBSE|             449     0.66383326E-007     0.10000000E+002                6
 RTBSE| Simulation step         Convergence     Electron number  ETRS Iterations
 RTBSE|             450     0.66348646E-007     0.10000000E+002                6
 RTBSE| Simulation step         Convergence     Electron number  ETRS Iterations
 RTBSE|             451     0.65619570E-007     0.10000000E+002                6
 RTBSE| Simulation step         Convergence     Electron number  ETRS Iterations
 RTBSE|             452     0.65549191E-007     0.10000000E+002                6
 RTBSE| Simulation step         Convergence     Electron number  ETRS Iterations
 RTBSE|             453     0.66105420E-007     0.10000000E+002                6
 RTBSE| Simulation step         Convergence     Electron number  ETRS Iterations
 RTBSE|             454     0.66608235E-007     0.10000000E+002                6
 RTBSE| Simulation step         Convergence     Electron number  ETRS Iterations
 RTBSE|             455     0.66630848E-007     0.10000000E+002                6
 RTBSE| Simulation step         Convergence     Electron number  ETRS Iterations
 RTBSE|             456     0.65834294E-007     0.10000000E+002                6
 RTBSE| Simulation step         Convergence     Electron number  ETRS Iterations
 RTBSE|             457     0.64081815E-007     0.10000000E+002                6
 RTBSE| Simulation step         Convergence     Electron number  ETRS Iterations
 RTBSE|             458     0.61297153E-007     0.10000000E+002                6
 RTBSE| Simulation step         Convergence     Electron number  ETRS Iterations
 RTBSE|             459     0.57341732E-007     0.10000000E+002                6
 RTBSE| Simulation step         Convergence     Electron number  ETRS Iterations
 RTBSE|             460     0.52095657E-007     0.10000000E+002                6
 RTBSE| Simulation step         Convergence     Electron number  ETRS Iterations
 RTBSE|             461     0.45496985E-007     0.10000000E+002                6
 RTBSE| Simulation step         Convergence     Electron number  ETRS Iterations
 RTBSE|             462     0.37525908E-007     0.10000000E+002                6
 RTBSE| Simulation step         Convergence     Electron number  ETRS Iterations
 RTBSE|             463     0.28258104E-007     0.10000000E+002                6
 RTBSE| Simulation step         Convergence     Electron number  ETRS Iterations
 RTBSE|             464     0.22274974E-007     0.10000000E+002                6
 RTBSE| Simulation step         Convergence     Electron number  ETRS Iterations
 RTBSE|             465     0.31894915E-007     0.10000000E+002                6
 RTBSE| Simulation step         Convergence     Electron number  ETRS Iterations
 RTBSE|             466     0.42774824E-007     0.10000000E+002                6
 RTBSE| Simulation step         Convergence     Electron number  ETRS Iterations
 RTBSE|             467     0.54025288E-007     0.10000000E+002                6
 RTBSE| Simulation step         Convergence     Electron number  ETRS Iterations
 RTBSE|             468     0.65163544E-007     0.10000000E+002                6
 RTBSE| Simulation step         Convergence     Electron number  ETRS Iterations
 RTBSE|             469     0.75682635E-007     0.10000000E+002                6
 RTBSE| Simulation step         Convergence     Electron number  ETRS Iterations
 RTBSE|             470     0.85290227E-007     0.10000000E+002                6
 RTBSE| Simulation step         Convergence     Electron number  ETRS Iterations
 RTBSE|             471     0.93606447E-007     0.10000000E+002                6
 RTBSE| Simulation step         Convergence     Electron number  ETRS Iterations
 RTBSE|             472     0.18705435E-007     0.10000000E+002                7
 RTBSE| Simulation step         Convergence     Electron number  ETRS Iterations
 RTBSE|             473     0.19736187E-007     0.10000000E+002                7
 RTBSE| Simulation step         Convergence     Electron number  ETRS Iterations
 RTBSE|             474     0.20407237E-007     0.10000000E+002                7
 RTBSE| Simulation step         Convergence     Electron number  ETRS Iterations
 RTBSE|             475     0.20686573E-007     0.10000000E+002                7
 RTBSE| Simulation step         Convergence     Electron number  ETRS Iterations
 RTBSE|             476     0.20594917E-007     0.10000000E+002                7
 RTBSE| Simulation step         Convergence     Electron number  ETRS Iterations
 RTBSE|             477     0.20099031E-007     0.10000000E+002                7
 RTBSE| Simulation step         Convergence     Electron number  ETRS Iterations
 RTBSE|             478     0.19242414E-007     0.10000000E+002                7
 RTBSE| Simulation step         Convergence     Electron number  ETRS Iterations
 RTBSE|             479     0.18049263E-007     0.10000000E+002                7
 RTBSE| Simulation step         Convergence     Electron number  ETRS Iterations
 RTBSE|             480     0.16570788E-007     0.10000000E+002                7
 RTBSE| Simulation step         Convergence     Electron number  ETRS Iterations
 RTBSE|             481     0.97227232E-007     0.10000000E+002                6
 RTBSE| Simulation step         Convergence     Electron number  ETRS Iterations
 RTBSE|             482     0.89911533E-007     0.10000000E+002                6
 RTBSE| Simulation step         Convergence     Electron number  ETRS Iterations
 RTBSE|             483     0.81199508E-007     0.10000000E+002                6
 RTBSE| Simulation step         Convergence     Electron number  ETRS Iterations
 RTBSE|             484     0.71383117E-007     0.10000000E+002                6
 RTBSE| Simulation step         Convergence     Electron number  ETRS Iterations
 RTBSE|             485     0.60773851E-007     0.10000000E+002                6
 RTBSE| Simulation step         Convergence     Electron number  ETRS Iterations
 RTBSE|             486     0.49673302E-007     0.10000000E+002                6
 RTBSE| Simulation step         Convergence     Electron number  ETRS Iterations
 RTBSE|             487     0.38345723E-007     0.10000000E+002                6
 RTBSE| Simulation step         Convergence     Electron number  ETRS Iterations
 RTBSE|             488     0.27024290E-007     0.10000000E+002                6
 RTBSE| Simulation step         Convergence     Electron number  ETRS Iterations
 RTBSE|             489     0.19122640E-007     0.10000000E+002                6
 RTBSE| Simulation step         Convergence     Electron number  ETRS Iterations
 RTBSE|             490     0.26823368E-007     0.10000000E+002                6
 RTBSE| Simulation step         Convergence     Electron number  ETRS Iterations
 RTBSE|             491     0.34859407E-007     0.10000000E+002                6
 RTBSE| Simulation step         Convergence     Electron number  ETRS Iterations
 RTBSE|             492     0.42454417E-007     0.10000000E+002                6
 RTBSE| Simulation step         Convergence     Electron number  ETRS Iterations
 RTBSE|             493     0.49322274E-007     0.10000000E+002                6
 RTBSE| Simulation step         Convergence     Electron number  ETRS Iterations
 RTBSE|             494     0.55319984E-007     0.10000000E+002                6
 RTBSE| Simulation step         Convergence     Electron number  ETRS Iterations
 RTBSE|             495     0.60456089E-007     0.10000000E+002                6
 RTBSE| Simulation step         Convergence     Electron number  ETRS Iterations
 RTBSE|             496     0.64700290E-007     0.10000000E+002                6
 RTBSE| Simulation step         Convergence     Electron number  ETRS Iterations
 RTBSE|             497     0.68115065E-007     0.10000000E+002                6
 RTBSE| Simulation step         Convergence     Electron number  ETRS Iterations
 RTBSE|             498     0.70746913E-007     0.10000000E+002                6
 RTBSE| Simulation step         Convergence     Electron number  ETRS Iterations
 RTBSE|             499     0.72661434E-007     0.10000000E+002                6
 RTBSE| Simulation step         Convergence     Electron number  ETRS Iterations
 RTBSE|             500     0.73861145E-007     0.10000000E+002                6
 RTBSE| Simulation step         Convergence     Electron number  ETRS Iterations
 RTBSE|             501     0.74399480E-007     0.10000000E+002                6
 RTBSE| Simulation step         Convergence     Electron number  ETRS Iterations
 RTBSE|             502     0.74292256E-007     0.10000000E+002                6
 RTBSE| Simulation step         Convergence     Electron number  ETRS Iterations
 RTBSE|             503     0.73545822E-007     0.10000000E+002                6
 RTBSE| Simulation step         Convergence     Electron number  ETRS Iterations
 RTBSE|             504     0.74925491E-007     0.10000000E+002                6
 RTBSE| Simulation step         Convergence     Electron number  ETRS Iterations
 RTBSE|             505     0.75580405E-007     0.10000000E+002                6
 RTBSE| Simulation step         Convergence     Electron number  ETRS Iterations
 RTBSE|             506     0.76434630E-007     0.10000000E+002                6
 RTBSE| Simulation step         Convergence     Electron number  ETRS Iterations
 RTBSE|             507     0.76530748E-007     0.10000000E+002                6
 RTBSE| Simulation step         Convergence     Electron number  ETRS Iterations
 RTBSE|             508     0.75581178E-007     0.10000000E+002                6
 RTBSE| Simulation step         Convergence     Electron number  ETRS Iterations
 RTBSE|             509     0.73370786E-007     0.10000000E+002                6
 RTBSE| Simulation step         Convergence     Electron number  ETRS Iterations
 RTBSE|             510     0.69727989E-007     0.10000000E+002                6
 RTBSE| Simulation step         Convergence     Electron number  ETRS Iterations
 RTBSE|             511     0.64475665E-007     0.10000000E+002                6
 RTBSE| Simulation step         Convergence     Electron number  ETRS Iterations
 RTBSE|             512     0.57560954E-007     0.10000000E+002                6
 RTBSE| Simulation step         Convergence     Electron number  ETRS Iterations
 RTBSE|             513     0.48924035E-007     0.10000000E+002                6
 RTBSE| Simulation step         Convergence     Electron number  ETRS Iterations
 RTBSE|             514     0.38570081E-007     0.10000000E+002                6
 RTBSE| Simulation step         Convergence     Electron number  ETRS Iterations
 RTBSE|             515     0.26631516E-007     0.10000000E+002                6
 RTBSE| Simulation step         Convergence     Electron number  ETRS Iterations
 RTBSE|             516     0.32024160E-007     0.10000000E+002                6
 RTBSE| Simulation step         Convergence     Electron number  ETRS Iterations
 RTBSE|             517     0.44704419E-007     0.10000000E+002                6
 RTBSE| Simulation step         Convergence     Electron number  ETRS Iterations
 RTBSE|             518     0.58277278E-007     0.10000000E+002                6
 RTBSE| Simulation step         Convergence     Electron number  ETRS Iterations
 RTBSE|             519     0.71912210E-007     0.10000000E+002                6
 RTBSE| Simulation step         Convergence     Electron number  ETRS Iterations
 RTBSE|             520     0.85011050E-007     0.10000000E+002                6
 RTBSE| Simulation step         Convergence     Electron number  ETRS Iterations
 RTBSE|             521     0.97089562E-007     0.10000000E+002                6
 RTBSE| Simulation step         Convergence     Electron number  ETRS Iterations
 RTBSE|             522     0.19812782E-007     0.10000000E+002                7
 RTBSE| Simulation step         Convergence     Electron number  ETRS Iterations
 RTBSE|             523     0.21560321E-007     0.10000000E+002                7
 RTBSE| Simulation step         Convergence     Electron number  ETRS Iterations
 RTBSE|             524     0.22914995E-007     0.10000000E+002                7
 RTBSE| Simulation step         Convergence     Electron number  ETRS Iterations
 RTBSE|             525     0.23807883E-007     0.10000000E+002                7
 RTBSE| Simulation step         Convergence     Electron number  ETRS Iterations
 RTBSE|             526     0.24221727E-007     0.10000000E+002                7
 RTBSE| Simulation step         Convergence     Electron number  ETRS Iterations
 RTBSE|             527     0.24168985E-007     0.10000000E+002                7
 RTBSE| Simulation step         Convergence     Electron number  ETRS Iterations
 RTBSE|             528     0.23638348E-007     0.10000000E+002                7
 RTBSE| Simulation step         Convergence     Electron number  ETRS Iterations
 RTBSE|             529     0.22670252E-007     0.10000000E+002                7
 RTBSE| Simulation step         Convergence     Electron number  ETRS Iterations
 RTBSE|             530     0.21283822E-007     0.10000000E+002                7
 RTBSE| Simulation step         Convergence     Electron number  ETRS Iterations
 RTBSE|             531     0.19541827E-007     0.10000000E+002                7
 RTBSE| Simulation step         Convergence     Electron number  ETRS Iterations
 RTBSE|             532     0.17499544E-007     0.10000000E+002                7
 RTBSE| Simulation step         Convergence     Electron number  ETRS Iterations
 RTBSE|             533     0.15218204E-007     0.10000000E+002                7
 RTBSE| Simulation step         Convergence     Electron number  ETRS Iterations
 RTBSE|             534     0.93966399E-007     0.10000000E+002                6
 RTBSE| Simulation step         Convergence     Electron number  ETRS Iterations
 RTBSE|             535     0.82389412E-007     0.10000000E+002                6
 RTBSE| Simulation step         Convergence     Electron number  ETRS Iterations
 RTBSE|             536     0.69989269E-007     0.10000000E+002                6
 RTBSE| Simulation step         Convergence     Electron number  ETRS Iterations
 RTBSE|             537     0.57154985E-007     0.10000000E+002                6
 RTBSE| Simulation step         Convergence     Electron number  ETRS Iterations
 RTBSE|             538     0.44271934E-007     0.10000000E+002                6
 RTBSE| Simulation step         Convergence     Electron number  ETRS Iterations
 RTBSE|             539     0.31676464E-007     0.10000000E+002                6
 RTBSE| Simulation step         Convergence     Electron number  ETRS Iterations
 RTBSE|             540     0.19636096E-007     0.10000000E+002                6
 RTBSE| Simulation step         Convergence     Electron number  ETRS Iterations
 RTBSE|             541     0.26139061E-007     0.10000000E+002                6
 RTBSE| Simulation step         Convergence     Electron number  ETRS Iterations
 RTBSE|             542     0.34495391E-007     0.10000000E+002                6
 RTBSE| Simulation step         Convergence     Electron number  ETRS Iterations
 RTBSE|             543     0.42469025E-007     0.10000000E+002                6
 RTBSE| Simulation step         Convergence     Electron number  ETRS Iterations
 RTBSE|             544     0.49711630E-007     0.10000000E+002                6
 RTBSE| Simulation step         Convergence     Electron number  ETRS Iterations
 RTBSE|             545     0.56096541E-007     0.10000000E+002                6
 RTBSE| Simulation step         Convergence     Electron number  ETRS Iterations
 RTBSE|             546     0.61636131E-007     0.10000000E+002                6
 RTBSE| Simulation step         Convergence     Electron number  ETRS Iterations
 RTBSE|             547     0.66379775E-007     0.10000000E+002                6
 RTBSE| Simulation step         Convergence     Electron number  ETRS Iterations
 RTBSE|             548     0.70348299E-007     0.10000000E+002                6
 RTBSE| Simulation step         Convergence     Electron number  ETRS Iterations
 RTBSE|             549     0.73620397E-007     0.10000000E+002                6
 RTBSE| Simulation step         Convergence     Electron number  ETRS Iterations
 RTBSE|             550     0.76228227E-007     0.10000000E+002                6
 RTBSE| Simulation step         Convergence     Electron number  ETRS Iterations
 RTBSE|             551     0.78190707E-007     0.10000000E+002                6
 RTBSE| Simulation step         Convergence     Electron number  ETRS Iterations
 RTBSE|             552     0.79527633E-007     0.10000000E+002                6
 RTBSE| Simulation step         Convergence     Electron number  ETRS Iterations
 RTBSE|             553     0.80201469E-007     0.10000000E+002                6
 RTBSE| Simulation step         Convergence     Electron number  ETRS Iterations
 RTBSE|             554     0.80168463E-007     0.10000000E+002                6
 RTBSE| Simulation step         Convergence     Electron number  ETRS Iterations
 RTBSE|             555     0.80910810E-007     0.10000000E+002                6
 RTBSE| Simulation step         Convergence     Electron number  ETRS Iterations
 RTBSE|             556     0.82501360E-007     0.10000000E+002                6
 RTBSE| Simulation step         Convergence     Electron number  ETRS Iterations
 RTBSE|             557     0.83651225E-007     0.10000000E+002                6
 RTBSE| Simulation step         Convergence     Electron number  ETRS Iterations
 RTBSE|             558     0.84653141E-007     0.10000000E+002                6
 RTBSE| Simulation step         Convergence     Electron number  ETRS Iterations
 RTBSE|             559     0.84461395E-007     0.10000000E+002                6
 RTBSE| Simulation step         Convergence     Electron number  ETRS Iterations
 RTBSE|             560     0.82870309E-007     0.10000000E+002                6
 RTBSE| Simulation step         Convergence     Electron number  ETRS Iterations
 RTBSE|             561     0.79697351E-007     0.10000000E+002                6
 RTBSE| Simulation step         Convergence     Electron number  ETRS Iterations
 RTBSE|             562     0.74745838E-007     0.10000000E+002                6
 RTBSE| Simulation step         Convergence     Electron number  ETRS Iterations
 RTBSE|             563     0.67821403E-007     0.10000000E+002                6
 RTBSE| Simulation step         Convergence     Electron number  ETRS Iterations
 RTBSE|             564     0.58842254E-007     0.10000000E+002                6
 RTBSE| Simulation step         Convergence     Electron number  ETRS Iterations
 RTBSE|             565     0.47786195E-007     0.10000000E+002                6
 RTBSE| Simulation step         Convergence     Electron number  ETRS Iterations
 RTBSE|             566     0.34796927E-007     0.10000000E+002                6
 RTBSE| Simulation step         Convergence     Electron number  ETRS Iterations
 RTBSE|             567     0.30943122E-007     0.10000000E+002                6
 RTBSE| Simulation step         Convergence     Electron number  ETRS Iterations
 RTBSE|             568     0.44715542E-007     0.10000000E+002                6
 RTBSE| Simulation step         Convergence     Electron number  ETRS Iterations
 RTBSE|             569     0.60013672E-007     0.10000000E+002                6
 RTBSE| Simulation step         Convergence     Electron number  ETRS Iterations
 RTBSE|             570     0.75665944E-007     0.10000000E+002                6
 RTBSE| Simulation step         Convergence     Electron number  ETRS Iterations
 RTBSE|             571     0.90829439E-007     0.10000000E+002                6
 RTBSE| Simulation step         Convergence     Electron number  ETRS Iterations
 RTBSE|             572     0.19021517E-007     0.10000000E+002                7
 RTBSE| Simulation step         Convergence     Electron number  ETRS Iterations
 RTBSE|             573     0.21488826E-007     0.10000000E+002                7
 RTBSE| Simulation step         Convergence     Electron number  ETRS Iterations
 RTBSE|             574     0.23551361E-007     0.10000000E+002                7
 RTBSE| Simulation step         Convergence     Electron number  ETRS Iterations
 RTBSE|             575     0.25128443E-007     0.10000000E+002                7
 RTBSE| Simulation step         Convergence     Electron number  ETRS Iterations
 RTBSE|             576     0.26175385E-007     0.10000000E+002                7
 RTBSE| Simulation step         Convergence     Electron number  ETRS Iterations
 RTBSE|             577     0.26665442E-007     0.10000000E+002                7
 RTBSE| Simulation step         Convergence     Electron number  ETRS Iterations
 RTBSE|             578     0.26596456E-007     0.10000000E+002                7
 RTBSE| Simulation step         Convergence     Electron number  ETRS Iterations
 RTBSE|             579     0.25994650E-007     0.10000000E+002                7
 RTBSE| Simulation step         Convergence     Electron number  ETRS Iterations
 RTBSE|             580     0.24870299E-007     0.10000000E+002                7
 RTBSE| Simulation step         Convergence     Electron number  ETRS Iterations
 RTBSE|             581     0.23296805E-007     0.10000000E+002                7
 RTBSE| Simulation step         Convergence     Electron number  ETRS Iterations
 RTBSE|             582     0.21310745E-007     0.10000000E+002                7
 RTBSE| Simulation step         Convergence     Electron number  ETRS Iterations
 RTBSE|             583     0.19030722E-007     0.10000000E+002                7
 RTBSE| Simulation step         Convergence     Electron number  ETRS Iterations
 RTBSE|             584     0.16496865E-007     0.10000000E+002                7
 RTBSE| Simulation step         Convergence     Electron number  ETRS Iterations
 RTBSE|             585     0.13833864E-007     0.10000000E+002                7
 RTBSE| Simulation step         Convergence     Electron number  ETRS Iterations
 RTBSE|             586     0.87757254E-007     0.10000000E+002                6
 RTBSE| Simulation step         Convergence     Electron number  ETRS Iterations
 RTBSE|             587     0.74375161E-007     0.10000000E+002                6
 RTBSE| Simulation step         Convergence     Electron number  ETRS Iterations
 RTBSE|             588     0.60863097E-007     0.10000000E+002                6
 RTBSE| Simulation step         Convergence     Electron number  ETRS Iterations
 RTBSE|             589     0.47584060E-007     0.10000000E+002                6
 RTBSE| Simulation step         Convergence     Electron number  ETRS Iterations
 RTBSE|             590     0.34833568E-007     0.10000000E+002                6
 RTBSE| Simulation step         Convergence     Electron number  ETRS Iterations
 RTBSE|             591     0.22801570E-007     0.10000000E+002                6
 RTBSE| Simulation step         Convergence     Electron number  ETRS Iterations
 RTBSE|             592     0.23209476E-007     0.10000000E+002                6
 RTBSE| Simulation step         Convergence     Electron number  ETRS Iterations
 RTBSE|             593     0.31182279E-007     0.10000000E+002                6
 RTBSE| Simulation step         Convergence     Electron number  ETRS Iterations
 RTBSE|             594     0.39007448E-007     0.10000000E+002                6
 RTBSE| Simulation step         Convergence     Electron number  ETRS Iterations
 RTBSE|             595     0.46322906E-007     0.10000000E+002                6
 RTBSE| Simulation step         Convergence     Electron number  ETRS Iterations
 RTBSE|             596     0.52999306E-007     0.10000000E+002                6
 RTBSE| Simulation step         Convergence     Electron number  ETRS Iterations
 RTBSE|             597     0.59014889E-007     0.10000000E+002                6
 RTBSE| Simulation step         Convergence     Electron number  ETRS Iterations
 RTBSE|             598     0.64424916E-007     0.10000000E+002                6
 RTBSE| Simulation step         Convergence     Electron number  ETRS Iterations
 RTBSE|             599     0.69211297E-007     0.10000000E+002                6
 RTBSE| Simulation step         Convergence     Electron number  ETRS Iterations
 RTBSE|             600     0.73422699E-007     0.10000000E+002                6
 RTBSE| Simulation step         Convergence     Electron number  ETRS Iterations
 RTBSE|             601     0.77055644E-007     0.10000000E+002                6
 RTBSE| Simulation step         Convergence     Electron number  ETRS Iterations
 RTBSE|             602     0.80082378E-007     0.10000000E+002                6
 RTBSE| Simulation step         Convergence     Electron number  ETRS Iterations
 RTBSE|             603     0.82490058E-007     0.10000000E+002                6
 RTBSE| Simulation step         Convergence     Electron number  ETRS Iterations
 RTBSE|             604     0.84173999E-007     0.10000000E+002                6
 RTBSE| Simulation step         Convergence     Electron number  ETRS Iterations
 RTBSE|             605     0.85020514E-007     0.10000000E+002                6
 RTBSE| Simulation step         Convergence     Electron number  ETRS Iterations
 RTBSE|             606     0.84949594E-007     0.10000000E+002                6
 RTBSE| Simulation step         Convergence     Electron number  ETRS Iterations
 RTBSE|             607     0.87389067E-007     0.10000000E+002                6
 RTBSE| Simulation step         Convergence     Electron number  ETRS Iterations
 RTBSE|             608     0.88919970E-007     0.10000000E+002                6
 RTBSE| Simulation step         Convergence     Electron number  ETRS Iterations
 RTBSE|             609     0.90525589E-007     0.10000000E+002                6
 RTBSE| Simulation step         Convergence     Electron number  ETRS Iterations
 RTBSE|             610     0.90968282E-007     0.10000000E+002                6
 RTBSE| Simulation step         Convergence     Electron number  ETRS Iterations
 RTBSE|             611     0.89888728E-007     0.10000000E+002                6
 RTBSE| Simulation step         Convergence     Electron number  ETRS Iterations
 RTBSE|             612     0.87007379E-007     0.10000000E+002                6
 RTBSE| Simulation step         Convergence     Electron number  ETRS Iterations
 RTBSE|             613     0.82164654E-007     0.10000000E+002                6
 RTBSE| Simulation step         Convergence     Electron number  ETRS Iterations
 RTBSE|             614     0.75187077E-007     0.10000000E+002                6
 RTBSE| Simulation step         Convergence     Electron number  ETRS Iterations
 RTBSE|             615     0.65984059E-007     0.10000000E+002                6
 RTBSE| Simulation step         Convergence     Electron number  ETRS Iterations
 RTBSE|             616     0.54544212E-007     0.10000000E+002                6
 RTBSE| Simulation step         Convergence     Electron number  ETRS Iterations
 RTBSE|             617     0.40928262E-007     0.10000000E+002                6
 RTBSE| Simulation step         Convergence     Electron number  ETRS Iterations
 RTBSE|             618     0.29297486E-007     0.10000000E+002                6
 RTBSE| Simulation step         Convergence     Electron number  ETRS Iterations
 RTBSE|             619     0.43342751E-007     0.10000000E+002                6
 RTBSE| Simulation step         Convergence     Electron number  ETRS Iterations
 RTBSE|             620     0.59454436E-007     0.10000000E+002                6
 RTBSE| Simulation step         Convergence     Electron number  ETRS Iterations
 RTBSE|             621     0.76165451E-007     0.10000000E+002                6
 RTBSE| Simulation step         Convergence     Electron number  ETRS Iterations
 RTBSE|             622     0.92485180E-007     0.10000000E+002                6
 RTBSE| Simulation step         Convergence     Electron number  ETRS Iterations
 RTBSE|             623     0.19522513E-007     0.10000000E+002                7
 RTBSE| Simulation step         Convergence     Electron number  ETRS Iterations
 RTBSE|             624     0.22210551E-007     0.10000000E+002                7
 RTBSE| Simulation step         Convergence     Electron number  ETRS Iterations
 RTBSE|             625     0.24416277E-007     0.10000000E+002                7
 RTBSE| Simulation step         Convergence     Electron number  ETRS Iterations
 RTBSE|             626     0.26112459E-007     0.10000000E+002                7
 RTBSE| Simulation step         Convergence     Electron number  ETRS Iterations
 RTBSE|             627     0.27217615E-007     0.10000000E+002                7
 RTBSE| Simulation step         Convergence     Electron number  ETRS Iterations
 RTBSE|             628     0.27715601E-007     0.10000000E+002                7
 RTBSE| Simulation step         Convergence     Electron number  ETRS Iterations
 RTBSE|             629     0.27602660E-007     0.10000000E+002                7
 RTBSE| Simulation step         Convergence     Electron number  ETRS Iterations
 RTBSE|             630     0.26917575E-007     0.10000000E+002                7
 RTBSE| Simulation step         Convergence     Electron number  ETRS Iterations
 RTBSE|             631     0.25691455E-007     0.10000000E+002                7
 RTBSE| Simulation step         Convergence     Electron number  ETRS Iterations
 RTBSE|             632     0.24009137E-007     0.10000000E+002                7
 RTBSE| Simulation step         Convergence     Electron number  ETRS Iterations
 RTBSE|             633     0.21937276E-007     0.10000000E+002                7
 RTBSE| Simulation step         Convergence     Electron number  ETRS Iterations
 RTBSE|             634     0.19584898E-007     0.10000000E+002                7
 RTBSE| Simulation step         Convergence     Electron number  ETRS Iterations
 RTBSE|             635     0.17032109E-007     0.10000000E+002                7
 RTBSE| Simulation step         Convergence     Electron number  ETRS Iterations
 RTBSE|             636     0.14387797E-007     0.10000000E+002                7
 RTBSE| Simulation step         Convergence     Electron number  ETRS Iterations
 RTBSE|             637     0.89899328E-007     0.10000000E+002                6
 RTBSE| Simulation step         Convergence     Electron number  ETRS Iterations
 RTBSE|             638     0.76980011E-007     0.10000000E+002                6
 RTBSE| Simulation step         Convergence     Electron number  ETRS Iterations
 RTBSE|             639     0.64104820E-007     0.10000000E+002                6
 RTBSE| Simulation step         Convergence     Electron number  ETRS Iterations
 RTBSE|             640     0.51585189E-007     0.10000000E+002                6
 RTBSE| Simulation step         Convergence     Electron number  ETRS Iterations
 RTBSE|             641     0.39650998E-007     0.10000000E+002                6
 RTBSE| Simulation step         Convergence     Electron number  ETRS Iterations
 RTBSE|             642     0.28444715E-007     0.10000000E+002                6
 RTBSE| Simulation step         Convergence     Electron number  ETRS Iterations
 RTBSE|             643     0.17991275E-007     0.10000000E+002                6
 RTBSE| Simulation step         Convergence     Electron number  ETRS Iterations
 RTBSE|             644     0.24751106E-007     0.10000000E+002                6
 RTBSE| Simulation step         Convergence     Electron number  ETRS Iterations
 RTBSE|             645     0.32531108E-007     0.10000000E+002                6
 RTBSE| Simulation step         Convergence     Electron number  ETRS Iterations
 RTBSE|             646     0.40267367E-007     0.10000000E+002                6
 RTBSE| Simulation step         Convergence     Electron number  ETRS Iterations
 RTBSE|             647     0.47751776E-007     0.10000000E+002                6
 RTBSE| Simulation step         Convergence     Electron number  ETRS Iterations
 RTBSE|             648     0.54866134E-007     0.10000000E+002                6
 RTBSE| Simulation step         Convergence     Electron number  ETRS Iterations
 RTBSE|             649     0.61540798E-007     0.10000000E+002                6
 RTBSE| Simulation step         Convergence     Electron number  ETRS Iterations
 RTBSE|             650     0.67739065E-007     0.10000000E+002                6
 RTBSE| Simulation step         Convergence     Electron number  ETRS Iterations
 RTBSE|             651     0.73344247E-007     0.10000000E+002                6
 RTBSE| Simulation step         Convergence     Electron number  ETRS Iterations
 RTBSE|             652     0.78301573E-007     0.10000000E+002                6
 RTBSE| Simulation step         Convergence     Electron number  ETRS Iterations
 RTBSE|             653     0.82482697E-007     0.10000000E+002                6
 RTBSE| Simulation step         Convergence     Electron number  ETRS Iterations
 RTBSE|             654     0.85823803E-007     0.10000000E+002                6
 RTBSE| Simulation step         Convergence     Electron number  ETRS Iterations
 RTBSE|             655     0.88224827E-007     0.10000000E+002                6
 RTBSE| Simulation step         Convergence     Electron number  ETRS Iterations
 RTBSE|             656     0.89598927E-007     0.10000000E+002                6
 RTBSE| Simulation step         Convergence     Electron number  ETRS Iterations
 RTBSE|             657     0.89819764E-007     0.10000000E+002                6
 RTBSE| Simulation step         Convergence     Electron number  ETRS Iterations
 RTBSE|             658     0.91602352E-007     0.10000000E+002                6
 RTBSE| Simulation step         Convergence     Electron number  ETRS Iterations
 RTBSE|             659     0.93400125E-007     0.10000000E+002                6
 RTBSE| Simulation step         Convergence     Electron number  ETRS Iterations
 RTBSE|             660     0.94737758E-007     0.10000000E+002                6
 RTBSE| Simulation step         Convergence     Electron number  ETRS Iterations
 RTBSE|             661     0.95250571E-007     0.10000000E+002                6
 RTBSE| Simulation step         Convergence     Electron number  ETRS Iterations
 RTBSE|             662     0.94166631E-007     0.10000000E+002                6
 RTBSE| Simulation step         Convergence     Electron number  ETRS Iterations
 RTBSE|             663     0.91266950E-007     0.10000000E+002                6
 RTBSE| Simulation step         Convergence     Electron number  ETRS Iterations
 RTBSE|             664     0.86406572E-007     0.10000000E+002                6
 RTBSE| Simulation step         Convergence     Electron number  ETRS Iterations
 RTBSE|             665     0.79409270E-007     0.10000000E+002                6
 RTBSE| Simulation step         Convergence     Electron number  ETRS Iterations
 RTBSE|             666     0.70170815E-007     0.10000000E+002                6
 RTBSE| Simulation step         Convergence     Electron number  ETRS Iterations
 RTBSE|             667     0.58647846E-007     0.10000000E+002                6
 RTBSE| Simulation step         Convergence     Electron number  ETRS Iterations
 RTBSE|             668     0.44873315E-007     0.10000000E+002                6
 RTBSE| Simulation step         Convergence     Electron number  ETRS Iterations
 RTBSE|             669     0.29044965E-007     0.10000000E+002                6
 RTBSE| Simulation step         Convergence     Electron number  ETRS Iterations
 RTBSE|             670     0.41231253E-007     0.10000000E+002                6
 RTBSE| Simulation step         Convergence     Electron number  ETRS Iterations
 RTBSE|             671     0.57604761E-007     0.10000000E+002                6
 RTBSE| Simulation step         Convergence     Electron number  ETRS Iterations
 RTBSE|             672     0.74835233E-007     0.10000000E+002                6
 RTBSE| Simulation step         Convergence     Electron number  ETRS Iterations
 RTBSE|             673     0.91811260E-007     0.10000000E+002                6
 RTBSE| Simulation step         Convergence     Electron number  ETRS Iterations
 RTBSE|             674     0.19545390E-007     0.10000000E+002                7
 RTBSE| Simulation step         Convergence     Electron number  ETRS Iterations
 RTBSE|             675     0.22322620E-007     0.10000000E+002                7
 RTBSE| Simulation step         Convergence     Electron number  ETRS Iterations
 RTBSE|             676     0.24601201E-007     0.10000000E+002                7
 RTBSE| Simulation step         Convergence     Electron number  ETRS Iterations
 RTBSE|             677     0.26309148E-007     0.10000000E+002                7
 RTBSE| Simulation step         Convergence     Electron number  ETRS Iterations
 RTBSE|             678     0.27384472E-007     0.10000000E+002                7
 RTBSE| Simulation step         Convergence     Electron number  ETRS Iterations
 RTBSE|             679     0.27813283E-007     0.10000000E+002                7
 RTBSE| Simulation step         Convergence     Electron number  ETRS Iterations
 RTBSE|             680     0.27614692E-007     0.10000000E+002                7
 RTBSE| Simulation step         Convergence     Electron number  ETRS Iterations
 RTBSE|             681     0.26823141E-007     0.10000000E+002                7
 RTBSE| Simulation step         Convergence     Electron number  ETRS Iterations
 RTBSE|             682     0.25535514E-007     0.10000000E+002                7
 RTBSE| Simulation step         Convergence     Electron number  ETRS Iterations
 RTBSE|             683     0.23824678E-007     0.10000000E+002                7
 RTBSE| Simulation step         Convergence     Electron number  ETRS Iterations
 RTBSE|             684     0.21796031E-007     0.10000000E+002                7
 RTBSE| Simulation step         Convergence     Electron number  ETRS Iterations
 RTBSE|             685     0.19539214E-007     0.10000000E+002                7
 RTBSE| Simulation step         Convergence     Electron number  ETRS Iterations
 RTBSE|             686     0.17154152E-007     0.10000000E+002                7
 RTBSE| Simulation step         Convergence     Electron number  ETRS Iterations
 RTBSE|             687     0.14737017E-007     0.10000000E+002                7
 RTBSE| Simulation step         Convergence     Electron number  ETRS Iterations
 RTBSE|             688     0.90976747E-007     0.10000000E+002                6
 RTBSE| Simulation step         Convergence     Electron number  ETRS Iterations
 RTBSE|             689     0.79511301E-007     0.10000000E+002                6
 RTBSE| Simulation step         Convergence     Electron number  ETRS Iterations
 RTBSE|             690     0.68208632E-007     0.10000000E+002                6
 RTBSE| Simulation step         Convergence     Electron number  ETRS Iterations
 RTBSE|             691     0.57197510E-007     0.10000000E+002                6
 RTBSE| Simulation step         Convergence     Electron number  ETRS Iterations
 RTBSE|             692     0.46581394E-007     0.10000000E+002                6
 RTBSE| Simulation step         Convergence     Electron number  ETRS Iterations
 RTBSE|             693     0.36343834E-007     0.10000000E+002                6
 RTBSE| Simulation step         Convergence     Electron number  ETRS Iterations
 RTBSE|             694     0.26449841E-007     0.10000000E+002                6
 RTBSE| Simulation step         Convergence     Electron number  ETRS Iterations
 RTBSE|             695     0.18379536E-007     0.10000000E+002                6
 RTBSE| Simulation step         Convergence     Electron number  ETRS Iterations
 RTBSE|             696     0.25879927E-007     0.10000000E+002                6
 RTBSE| Simulation step         Convergence     Electron number  ETRS Iterations
 RTBSE|             697     0.34438465E-007     0.10000000E+002                6
 RTBSE| Simulation step         Convergence     Electron number  ETRS Iterations
 RTBSE|             698     0.43289369E-007     0.10000000E+002                6
 RTBSE| Simulation step         Convergence     Electron number  ETRS Iterations
 RTBSE|             699     0.52035133E-007     0.10000000E+002                6
 RTBSE| Simulation step         Convergence     Electron number  ETRS Iterations
 RTBSE|             700     0.60385185E-007     0.10000000E+002                6
 RTBSE| Simulation step         Convergence     Electron number  ETRS Iterations
 RTBSE|             701     0.68114747E-007     0.10000000E+002                6
 RTBSE| Simulation step         Convergence     Electron number  ETRS Iterations
 RTBSE|             702     0.75047230E-007     0.10000000E+002                6
 RTBSE| Simulation step         Convergence     Electron number  ETRS Iterations
 RTBSE|             703     0.81024682E-007     0.10000000E+002                6
 RTBSE| Simulation step         Convergence     Electron number  ETRS Iterations
 RTBSE|             704     0.85864461E-007     0.10000000E+002                6
 RTBSE| Simulation step         Convergence     Electron number  ETRS Iterations
 RTBSE|             705     0.89502987E-007     0.10000000E+002                6
 RTBSE| Simulation step         Convergence     Electron number  ETRS Iterations
 RTBSE|             706     0.91882905E-007     0.10000000E+002                6
 RTBSE| Simulation step         Convergence     Electron number  ETRS Iterations
 RTBSE|             707     0.92906938E-007     0.10000000E+002                6
 RTBSE| Simulation step         Convergence     Electron number  ETRS Iterations
 RTBSE|             708     0.92629097E-007     0.10000000E+002                6
 RTBSE| Simulation step         Convergence     Electron number  ETRS Iterations
 RTBSE|             709     0.93826213E-007     0.10000000E+002                6
 RTBSE| Simulation step         Convergence     Electron number  ETRS Iterations
 RTBSE|             710     0.95031363E-007     0.10000000E+002                6
 RTBSE| Simulation step         Convergence     Electron number  ETRS Iterations
 RTBSE|             711     0.95553373E-007     0.10000000E+002                6
 RTBSE| Simulation step         Convergence     Electron number  ETRS Iterations
 RTBSE|             712     0.95533948E-007     0.10000000E+002                6
 RTBSE| Simulation step         Convergence     Electron number  ETRS Iterations
 RTBSE|             713     0.94051232E-007     0.10000000E+002                6
 RTBSE| Simulation step         Convergence     Electron number  ETRS Iterations
 RTBSE|             714     0.90974433E-007     0.10000000E+002                6
 RTBSE| Simulation step         Convergence     Electron number  ETRS Iterations
 RTBSE|             715     0.86164846E-007     0.10000000E+002                6
 RTBSE| Simulation step         Convergence     Electron number  ETRS Iterations
 RTBSE|             716     0.79460070E-007     0.10000000E+002                6
 RTBSE| Simulation step         Convergence     Electron number  ETRS Iterations
 RTBSE|             717     0.70736473E-007     0.10000000E+002                6
 RTBSE| Simulation step         Convergence     Electron number  ETRS Iterations
 RTBSE|             718     0.59855139E-007     0.10000000E+002                6
 RTBSE| Simulation step         Convergence     Electron number  ETRS Iterations
 RTBSE|             719     0.46768792E-007     0.10000000E+002                6
 RTBSE| Simulation step         Convergence     Electron number  ETRS Iterations
 RTBSE|             720     0.31564544E-007     0.10000000E+002                6
 RTBSE| Simulation step         Convergence     Electron number  ETRS Iterations
 RTBSE|             721     0.37980022E-007     0.10000000E+002                6
 RTBSE| Simulation step         Convergence     Electron number  ETRS Iterations
 RTBSE|             722     0.53914311E-007     0.10000000E+002                6
 RTBSE| Simulation step         Convergence     Electron number  ETRS Iterations
 RTBSE|             723     0.70942591E-007     0.10000000E+002                6
 RTBSE| Simulation step         Convergence     Electron number  ETRS Iterations
 RTBSE|             724     0.87871637E-007     0.10000000E+002                6
 RTBSE| Simulation step         Convergence     Electron number  ETRS Iterations
 RTBSE|             725     0.18833180E-007     0.10000000E+002                7
 RTBSE| Simulation step         Convergence     Electron number  ETRS Iterations
 RTBSE|             726     0.21626763E-007     0.10000000E+002                7
 RTBSE| Simulation step         Convergence     Electron number  ETRS Iterations
 RTBSE|             727     0.23898519E-007     0.10000000E+002                7
 RTBSE| Simulation step         Convergence     Electron number  ETRS Iterations
 RTBSE|             728     0.25563312E-007     0.10000000E+002                7
 RTBSE| Simulation step         Convergence     Electron number  ETRS Iterations
 RTBSE|             729     0.26616623E-007     0.10000000E+002                7
 RTBSE| Simulation step         Convergence     Electron number  ETRS Iterations
 RTBSE|             730     0.27010573E-007     0.10000000E+002                7
 RTBSE| Simulation step         Convergence     Electron number  ETRS Iterations
 RTBSE|             731     0.26821743E-007     0.10000000E+002                7
 RTBSE| Simulation step         Convergence     Electron number  ETRS Iterations
 RTBSE|             732     0.26070748E-007     0.10000000E+002                7
 RTBSE| Simulation step         Convergence     Electron number  ETRS Iterations
 RTBSE|             733     0.24869794E-007     0.10000000E+002                7
 RTBSE| Simulation step         Convergence     Electron number  ETRS Iterations
 RTBSE|             734     0.23296005E-007     0.10000000E+002                7
 RTBSE| Simulation step         Convergence     Electron number  ETRS Iterations
 RTBSE|             735     0.21471292E-007     0.10000000E+002                7
 RTBSE| Simulation step         Convergence     Electron number  ETRS Iterations
 RTBSE|             736     0.19473271E-007     0.10000000E+002                7
 RTBSE| Simulation step         Convergence     Electron number  ETRS Iterations
 RTBSE|             737     0.17375878E-007     0.10000000E+002                7
 RTBSE| Simulation step         Convergence     Electron number  ETRS Iterations
 RTBSE|             738     0.15281535E-007     0.10000000E+002                7
 RTBSE| Simulation step         Convergence     Electron number  ETRS Iterations
 RTBSE|             739     0.93224110E-007     0.10000000E+002                6
 RTBSE| Simulation step         Convergence     Electron number  ETRS Iterations
 RTBSE|             740     0.83550944E-007     0.10000000E+002                6
 RTBSE| Simulation step         Convergence     Electron number  ETRS Iterations
 RTBSE|             741     0.73887474E-007     0.10000000E+002                6
 RTBSE| Simulation step         Convergence     Electron number  ETRS Iterations
 RTBSE|             742     0.64263892E-007     0.10000000E+002                6
 RTBSE| Simulation step         Convergence     Electron number  ETRS Iterations
 RTBSE|             743     0.54668706E-007     0.10000000E+002                6
 RTBSE| Simulation step         Convergence     Electron number  ETRS Iterations
 RTBSE|             744     0.45002794E-007     0.10000000E+002                6
 RTBSE| Simulation step         Convergence     Electron number  ETRS Iterations
 RTBSE|             745     0.35228917E-007     0.10000000E+002                6
 RTBSE| Simulation step         Convergence     Electron number  ETRS Iterations
 RTBSE|             746     0.25249027E-007     0.10000000E+002                6
 RTBSE| Simulation step         Convergence     Electron number  ETRS Iterations
 RTBSE|             747     0.21020996E-007     0.10000000E+002                6
 RTBSE| Simulation step         Convergence     Electron number  ETRS Iterations
 RTBSE|             748     0.30207695E-007     0.10000000E+002                6
 RTBSE| Simulation step         Convergence     Electron number  ETRS Iterations
 RTBSE|             749     0.40380937E-007     0.10000000E+002                6
 RTBSE| Simulation step         Convergence     Electron number  ETRS Iterations
 RTBSE|             750     0.50604628E-007     0.10000000E+002                6
 RTBSE| Simulation step         Convergence     Electron number  ETRS Iterations
 RTBSE|             751     0.60357334E-007     0.10000000E+002                6
 RTBSE| Simulation step         Convergence     Electron number  ETRS Iterations
 RTBSE|             752     0.69288773E-007     0.10000000E+002                6
 RTBSE| Simulation step         Convergence     Electron number  ETRS Iterations
 RTBSE|             753     0.77062140E-007     0.10000000E+002                6
 RTBSE| Simulation step         Convergence     Electron number  ETRS Iterations
 RTBSE|             754     0.83467261E-007     0.10000000E+002                6
 RTBSE| Simulation step         Convergence     Electron number  ETRS Iterations
 RTBSE|             755     0.88295442E-007     0.10000000E+002                6
 RTBSE| Simulation step         Convergence     Electron number  ETRS Iterations
 RTBSE|             756     0.91508419E-007     0.10000000E+002                6
 RTBSE| Simulation step         Convergence     Electron number  ETRS Iterations
 RTBSE|             757     0.93129116E-007     0.10000000E+002                6
 RTBSE| Simulation step         Convergence     Electron number  ETRS Iterations
 RTBSE|             758     0.93297258E-007     0.10000000E+002                6
 RTBSE| Simulation step         Convergence     Electron number  ETRS Iterations
 RTBSE|             759     0.92085131E-007     0.10000000E+002                6
 RTBSE| Simulation step         Convergence     Electron number  ETRS Iterations
 RTBSE|             760     0.92651573E-007     0.10000000E+002                6
 RTBSE| Simulation step         Convergence     Electron number  ETRS Iterations
 RTBSE|             761     0.92883865E-007     0.10000000E+002                6
 RTBSE| Simulation step         Convergence     Electron number  ETRS Iterations
 RTBSE|             762     0.92614266E-007     0.10000000E+002                6
 RTBSE| Simulation step         Convergence     Electron number  ETRS Iterations
 RTBSE|             763     0.92078279E-007     0.10000000E+002                6
 RTBSE| Simulation step         Convergence     Electron number  ETRS Iterations
 RTBSE|             764     0.90510397E-007     0.10000000E+002                6
 RTBSE| Simulation step         Convergence     Electron number  ETRS Iterations
 RTBSE|             765     0.87800719E-007     0.10000000E+002                6
 RTBSE| Simulation step         Convergence     Electron number  ETRS Iterations
 RTBSE|             766     0.83761107E-007     0.10000000E+002                6
 RTBSE| Simulation step         Convergence     Electron number  ETRS Iterations
 RTBSE|             767     0.78196206E-007     0.10000000E+002                6
 RTBSE| Simulation step         Convergence     Electron number  ETRS Iterations
 RTBSE|             768     0.70880177E-007     0.10000000E+002                6
 RTBSE| Simulation step         Convergence     Electron number  ETRS Iterations
 RTBSE|             769     0.61568312E-007     0.10000000E+002                6
 RTBSE| Simulation step         Convergence     Electron number  ETRS Iterations
 RTBSE|             770     0.50100074E-007     0.10000000E+002                6
 RTBSE| Simulation step         Convergence     Electron number  ETRS Iterations
 RTBSE|             771     0.36414407E-007     0.10000000E+002                6
 RTBSE| Simulation step         Convergence     Electron number  ETRS Iterations
 RTBSE|             772     0.31961252E-007     0.10000000E+002                6
 RTBSE| Simulation step         Convergence     Electron number  ETRS Iterations
 RTBSE|             773     0.46796875E-007     0.10000000E+002                6
 RTBSE| Simulation step         Convergence     Electron number  ETRS Iterations
 RTBSE|             774     0.63416729E-007     0.10000000E+002                6
 RTBSE| Simulation step         Convergence     Electron number  ETRS Iterations
 RTBSE|             775     0.80436926E-007     0.10000000E+002                6
 RTBSE| Simulation step         Convergence     Electron number  ETRS Iterations
 RTBSE|             776     0.96765358E-007     0.10000000E+002                6
 RTBSE| Simulation step         Convergence     Electron number  ETRS Iterations
 RTBSE|             777     0.20359630E-007     0.10000000E+002                7
 RTBSE| Simulation step         Convergence     Electron number  ETRS Iterations
 RTBSE|             778     0.22765763E-007     0.10000000E+002                7
 RTBSE| Simulation step         Convergence     Electron number  ETRS Iterations
 RTBSE|             779     0.24604363E-007     0.10000000E+002                7
 RTBSE| Simulation step         Convergence     Electron number  ETRS Iterations
 RTBSE|             780     0.25795231E-007     0.10000000E+002                7
 RTBSE| Simulation step         Convergence     Electron number  ETRS Iterations
 RTBSE|             781     0.26353223E-007     0.10000000E+002                7
 RTBSE| Simulation step         Convergence     Electron number  ETRS Iterations
 RTBSE|             782     0.26312749E-007     0.10000000E+002                7
 RTBSE| Simulation step         Convergence     Electron number  ETRS Iterations
 RTBSE|             783     0.25702919E-007     0.10000000E+002                7
 RTBSE| Simulation step         Convergence     Electron number  ETRS Iterations
 RTBSE|             784     0.24652969E-007     0.10000000E+002                7
 RTBSE| Simulation step         Convergence     Electron number  ETRS Iterations
 RTBSE|             785     0.23240644E-007     0.10000000E+002                7
 RTBSE| Simulation step         Convergence     Electron number  ETRS Iterations
 RTBSE|             786     0.21598483E-007     0.10000000E+002                7
 RTBSE| Simulation step         Convergence     Electron number  ETRS Iterations
 RTBSE|             787     0.19783816E-007     0.10000000E+002                7
 RTBSE| Simulation step         Convergence     Electron number  ETRS Iterations
 RTBSE|             788     0.17904046E-007     0.10000000E+002                7
 RTBSE| Simulation step         Convergence     Electron number  ETRS Iterations
 RTBSE|             789     0.15992373E-007     0.10000000E+002                7
 RTBSE| Simulation step         Convergence     Electron number  ETRS Iterations
 RTBSE|             790     0.96579218E-007     0.10000000E+002                6
 RTBSE| Simulation step         Convergence     Electron number  ETRS Iterations
 RTBSE|             791     0.88059630E-007     0.10000000E+002                6
 RTBSE| Simulation step         Convergence     Electron number  ETRS Iterations
 RTBSE|             792     0.79437075E-007     0.10000000E+002                6
 RTBSE| Simulation step         Convergence     Electron number  ETRS Iterations
 RTBSE|             793     0.70633479E-007     0.10000000E+002                6
 RTBSE| Simulation step         Convergence     Electron number  ETRS Iterations
 RTBSE|             794     0.61549283E-007     0.10000000E+002                6
 RTBSE| Simulation step         Convergence     Electron number  ETRS Iterations
 RTBSE|             795     0.52063310E-007     0.10000000E+002                6
 RTBSE| Simulation step         Convergence     Electron number  ETRS Iterations
 RTBSE|             796     0.42090428E-007     0.10000000E+002                6
 RTBSE| Simulation step         Convergence     Electron number  ETRS Iterations
 RTBSE|             797     0.31575122E-007     0.10000000E+002                6
 RTBSE| Simulation step         Convergence     Electron number  ETRS Iterations
 RTBSE|             798     0.20518923E-007     0.10000000E+002                6
 RTBSE| Simulation step         Convergence     Electron number  ETRS Iterations
 RTBSE|             799     0.27446805E-007     0.10000000E+002                6
 RTBSE| Simulation step         Convergence     Electron number  ETRS Iterations
 RTBSE|             800     0.38490363E-007     0.10000000E+002                6
 RTBSE| Simulation step         Convergence     Electron number  ETRS Iterations
 RTBSE|             801     0.49748195E-007     0.10000000E+002                6
 RTBSE| Simulation step         Convergence     Electron number  ETRS Iterations
 RTBSE|             802     0.60437977E-007     0.10000000E+002                6
 RTBSE| Simulation step         Convergence     Electron number  ETRS Iterations
 RTBSE|             803     0.69976239E-007     0.10000000E+002                6
 RTBSE| Simulation step         Convergence     Electron number  ETRS Iterations
 RTBSE|             804     0.78035927E-007     0.10000000E+002                6
 RTBSE| Simulation step         Convergence     Electron number  ETRS Iterations
 RTBSE|             805     0.84340583E-007     0.10000000E+002                6
 RTBSE| Simulation step         Convergence     Electron number  ETRS Iterations
 RTBSE|             806     0.88781783E-007     0.10000000E+002                6
 RTBSE| Simulation step         Convergence     Electron number  ETRS Iterations
 RTBSE|             807     0.91350890E-007     0.10000000E+002                6
 RTBSE| Simulation step         Convergence     Electron number  ETRS Iterations
 RTBSE|             808     0.92183401E-007     0.10000000E+002                6
 RTBSE| Simulation step         Convergence     Electron number  ETRS Iterations
 RTBSE|             809     0.91421709E-007     0.10000000E+002                6
 RTBSE| Simulation step         Convergence     Electron number  ETRS Iterations
 RTBSE|             810     0.89385271E-007     0.10000000E+002                6
 RTBSE| Simulation step         Convergence     Electron number  ETRS Iterations
 RTBSE|             811     0.89183878E-007     0.10000000E+002                6
 RTBSE| Simulation step         Convergence     Electron number  ETRS Iterations
 RTBSE|             812     0.88698469E-007     0.10000000E+002                6
 RTBSE| Simulation step         Convergence     Electron number  ETRS Iterations
 RTBSE|             813     0.88015064E-007     0.10000000E+002                6
 RTBSE| Simulation step         Convergence     Electron number  ETRS Iterations
 RTBSE|             814     0.87323467E-007     0.10000000E+002                6
 RTBSE| Simulation step         Convergence     Electron number  ETRS Iterations
 RTBSE|             815     0.86017646E-007     0.10000000E+002                6
 RTBSE| Simulation step         Convergence     Electron number  ETRS Iterations
 RTBSE|             816     0.84018496E-007     0.10000000E+002                6
 RTBSE| Simulation step         Convergence     Electron number  ETRS Iterations
 RTBSE|             817     0.81159059E-007     0.10000000E+002                6
 RTBSE| Simulation step         Convergence     Electron number  ETRS Iterations
 RTBSE|             818     0.77141732E-007     0.10000000E+002                6
 RTBSE| Simulation step         Convergence     Electron number  ETRS Iterations
 RTBSE|             819     0.71655028E-007     0.10000000E+002                6
 RTBSE| Simulation step         Convergence     Electron number  ETRS Iterations
 RTBSE|             820     0.64304003E-007     0.10000000E+002                6
 RTBSE| Simulation step         Convergence     Electron number  ETRS Iterations
 RTBSE|             821     0.54801778E-007     0.10000000E+002                6
 RTBSE| Simulation step         Convergence     Electron number  ETRS Iterations
 RTBSE|             822     0.42934254E-007     0.10000000E+002                6
 RTBSE| Simulation step         Convergence     Electron number  ETRS Iterations
 RTBSE|             823     0.28642724E-007     0.10000000E+002                6
 RTBSE| Simulation step         Convergence     Electron number  ETRS Iterations
 RTBSE|             824     0.38793314E-007     0.10000000E+002                6
 RTBSE| Simulation step         Convergence     Electron number  ETRS Iterations
 RTBSE|             825     0.54962632E-007     0.10000000E+002                6
 RTBSE| Simulation step         Convergence     Electron number  ETRS Iterations
 RTBSE|             826     0.72226232E-007     0.10000000E+002                6
 RTBSE| Simulation step         Convergence     Electron number  ETRS Iterations
 RTBSE|             827     0.89355709E-007     0.10000000E+002                6
 RTBSE| Simulation step         Convergence     Electron number  ETRS Iterations
 RTBSE|             828     0.19097116E-007     0.10000000E+002                7
 RTBSE| Simulation step         Convergence     Electron number  ETRS Iterations
 RTBSE|             829     0.21782292E-007     0.10000000E+002                7
 RTBSE| Simulation step         Convergence     Electron number  ETRS Iterations
 RTBSE|             830     0.23879255E-007     0.10000000E+002                7
 RTBSE| Simulation step         Convergence     Electron number  ETRS Iterations
 RTBSE|             831     0.25337985E-007     0.10000000E+002                7
 RTBSE| Simulation step         Convergence     Electron number  ETRS Iterations
 RTBSE|             832     0.26089555E-007     0.10000000E+002                7
 RTBSE| Simulation step         Convergence     Electron number  ETRS Iterations
 RTBSE|             833     0.26201522E-007     0.10000000E+002                7
 RTBSE| Simulation step         Convergence     Electron number  ETRS Iterations
 RTBSE|             834     0.25716011E-007     0.10000000E+002                7
 RTBSE| Simulation step         Convergence     Electron number  ETRS Iterations
 RTBSE|             835     0.24748474E-007     0.10000000E+002                7
 RTBSE| Simulation step         Convergence     Electron number  ETRS Iterations
 RTBSE|             836     0.23392860E-007     0.10000000E+002                7
 RTBSE| Simulation step         Convergence     Electron number  ETRS Iterations
 RTBSE|             837     0.21763602E-007     0.10000000E+002                7
 RTBSE| Simulation step         Convergence     Electron number  ETRS Iterations
 RTBSE|             838     0.19991424E-007     0.10000000E+002                7
 RTBSE| Simulation step         Convergence     Electron number  ETRS Iterations
 RTBSE|             839     0.18170755E-007     0.10000000E+002                7
 RTBSE| Simulation step         Convergence     Electron number  ETRS Iterations
 RTBSE|             840     0.16359159E-007     0.10000000E+002                7
 RTBSE| Simulation step         Convergence     Electron number  ETRS Iterations
 RTBSE|             841     0.98059933E-007     0.10000000E+002                6
 RTBSE| Simulation step         Convergence     Electron number  ETRS Iterations
 RTBSE|             842     0.89999837E-007     0.10000000E+002                6
 RTBSE| Simulation step         Convergence     Electron number  ETRS Iterations
 RTBSE|             843     0.81844511E-007     0.10000000E+002                6
 RTBSE| Simulation step         Convergence     Electron number  ETRS Iterations
 RTBSE|             844     0.73544487E-007     0.10000000E+002                6
 RTBSE| Simulation step         Convergence     Electron number  ETRS Iterations
 RTBSE|             845     0.64899298E-007     0.10000000E+002                6
 RTBSE| Simulation step         Convergence     Electron number  ETRS Iterations
 RTBSE|             846     0.55735781E-007     0.10000000E+002                6
 RTBSE| Simulation step         Convergence     Electron number  ETRS Iterations
 RTBSE|             847     0.45913510E-007     0.10000000E+002                6
 RTBSE| Simulation step         Convergence     Electron number  ETRS Iterations
 RTBSE|             848     0.35475177E-007     0.10000000E+002                6
 RTBSE| Simulation step         Convergence     Electron number  ETRS Iterations
 RTBSE|             849     0.24202588E-007     0.10000000E+002                6
 RTBSE| Simulation step         Convergence     Electron number  ETRS Iterations
 RTBSE|             850     0.24413558E-007     0.10000000E+002                6
 RTBSE| Simulation step         Convergence     Electron number  ETRS Iterations
 RTBSE|             851     0.35504790E-007     0.10000000E+002                6
 RTBSE| Simulation step         Convergence     Electron number  ETRS Iterations
 RTBSE|             852     0.47098742E-007     0.10000000E+002                6
 RTBSE| Simulation step         Convergence     Electron number  ETRS Iterations
 RTBSE|             853     0.58109834E-007     0.10000000E+002                6
 RTBSE| Simulation step         Convergence     Electron number  ETRS Iterations
 RTBSE|             854     0.67909502E-007     0.10000000E+002                6
 RTBSE| Simulation step         Convergence     Electron number  ETRS Iterations
 RTBSE|             855     0.76074121E-007     0.10000000E+002                6
 RTBSE| Simulation step         Convergence     Electron number  ETRS Iterations
 RTBSE|             856     0.82297499E-007     0.10000000E+002                6
 RTBSE| Simulation step         Convergence     Electron number  ETRS Iterations
 RTBSE|             857     0.86509267E-007     0.10000000E+002                6
 RTBSE| Simulation step         Convergence     Electron number  ETRS Iterations
 RTBSE|             858     0.88731693E-007     0.10000000E+002                6
 RTBSE| Simulation step         Convergence     Electron number  ETRS Iterations
 RTBSE|             859     0.89133184E-007     0.10000000E+002                6
 RTBSE| Simulation step         Convergence     Electron number  ETRS Iterations
 RTBSE|             860     0.87982899E-007     0.10000000E+002                6
 RTBSE| Simulation step         Convergence     Electron number  ETRS Iterations
 RTBSE|             861     0.85677210E-007     0.10000000E+002                6
 RTBSE| Simulation step         Convergence     Electron number  ETRS Iterations
 RTBSE|             862     0.84501155E-007     0.10000000E+002                6
 RTBSE| Simulation step         Convergence     Electron number  ETRS Iterations
 RTBSE|             863     0.83767311E-007     0.10000000E+002                6
 RTBSE| Simulation step         Convergence     Electron number  ETRS Iterations
 RTBSE|             864     0.82942999E-007     0.10000000E+002                6
 RTBSE| Simulation step         Convergence     Electron number  ETRS Iterations
 RTBSE|             865     0.82513936E-007     0.10000000E+002                6
 RTBSE| Simulation step         Convergence     Electron number  ETRS Iterations
 RTBSE|             866     0.81873924E-007     0.10000000E+002                6
 RTBSE| Simulation step         Convergence     Electron number  ETRS Iterations
 RTBSE|             867     0.81003174E-007     0.10000000E+002                6
 RTBSE| Simulation step         Convergence     Electron number  ETRS Iterations
 RTBSE|             868     0.79673566E-007     0.10000000E+002                6
 RTBSE| Simulation step         Convergence     Electron number  ETRS Iterations
 RTBSE|             869     0.77517464E-007     0.10000000E+002                6
 RTBSE| Simulation step         Convergence     Electron number  ETRS Iterations
 RTBSE|             870     0.74082047E-007     0.10000000E+002                6
 RTBSE| Simulation step         Convergence     Electron number  ETRS Iterations
 RTBSE|             871     0.68895495E-007     0.10000000E+002                6
 RTBSE| Simulation step         Convergence     Electron number  ETRS Iterations
 RTBSE|             872     0.61480272E-007     0.10000000E+002                6
 RTBSE| Simulation step         Convergence     Electron number  ETRS Iterations
 RTBSE|             873     0.51390097E-007     0.10000000E+002                6
 RTBSE| Simulation step         Convergence     Electron number  ETRS Iterations
 RTBSE|             874     0.38407618E-007     0.10000000E+002                6
 RTBSE| Simulation step         Convergence     Electron number  ETRS Iterations
 RTBSE|             875     0.31144855E-007     0.10000000E+002                6
 RTBSE| Simulation step         Convergence     Electron number  ETRS Iterations
 RTBSE|             876     0.46760219E-007     0.10000000E+002                6
 RTBSE| Simulation step         Convergence     Electron number  ETRS Iterations
 RTBSE|             877     0.64588795E-007     0.10000000E+002                6
 RTBSE| Simulation step         Convergence     Electron number  ETRS Iterations
 RTBSE|             878     0.82847831E-007     0.10000000E+002                6
 RTBSE| Simulation step         Convergence     Electron number  ETRS Iterations
 RTBSE|             879     0.18072451E-007     0.10000000E+002                7
 RTBSE| Simulation step         Convergence     Electron number  ETRS Iterations
 RTBSE|             880     0.21074913E-007     0.10000000E+002                7
 RTBSE| Simulation step         Convergence     Electron number  ETRS Iterations
 RTBSE|             881     0.23443748E-007     0.10000000E+002                7
 RTBSE| Simulation step         Convergence     Electron number  ETRS Iterations
 RTBSE|             882     0.25104784E-007     0.10000000E+002                7
 RTBSE| Simulation step         Convergence     Electron number  ETRS Iterations
 RTBSE|             883     0.25996708E-007     0.10000000E+002                7
 RTBSE| Simulation step         Convergence     Electron number  ETRS Iterations
 RTBSE|             884     0.26154588E-007     0.10000000E+002                7
 RTBSE| Simulation step         Convergence     Electron number  ETRS Iterations
 RTBSE|             885     0.25669199E-007     0.10000000E+002                7
 RTBSE| Simulation step         Convergence     Electron number  ETRS Iterations
 RTBSE|             886     0.24630462E-007     0.10000000E+002                7
 RTBSE| Simulation step         Convergence     Electron number  ETRS Iterations
 RTBSE|             887     0.23214557E-007     0.10000000E+002                7
 RTBSE| Simulation step         Convergence     Electron number  ETRS Iterations
 RTBSE|             888     0.21558250E-007     0.10000000E+002                7
 RTBSE| Simulation step         Convergence     Electron number  ETRS Iterations
 RTBSE|             889     0.19767930E-007     0.10000000E+002                7
 RTBSE| Simulation step         Convergence     Electron number  ETRS Iterations
 RTBSE|             890     0.17982795E-007     0.10000000E+002                7
 RTBSE| Simulation step         Convergence     Electron number  ETRS Iterations
 RTBSE|             891     0.16251555E-007     0.10000000E+002                7
 RTBSE| Simulation step         Convergence     Electron number  ETRS Iterations
 RTBSE|             892     0.96615489E-007     0.10000000E+002                6
 RTBSE| Simulation step         Convergence     Electron number  ETRS Iterations
 RTBSE|             893     0.89252488E-007     0.10000000E+002                6
 RTBSE| Simulation step         Convergence     Electron number  ETRS Iterations
 RTBSE|             894     0.82033681E-007     0.10000000E+002                6
 RTBSE| Simulation step         Convergence     Electron number  ETRS Iterations
 RTBSE|             895     0.74757327E-007     0.10000000E+002                6
 RTBSE| Simulation step         Convergence     Electron number  ETRS Iterations
 RTBSE|             896     0.67180350E-007     0.10000000E+002                6
 RTBSE| Simulation step         Convergence     Electron number  ETRS Iterations
 RTBSE|             897     0.59044303E-007     0.10000000E+002                6
 RTBSE| Simulation step         Convergence     Electron number  ETRS Iterations
 RTBSE|             898     0.50184205E-007     0.10000000E+002                6
 RTBSE| Simulation step         Convergence     Electron number  ETRS Iterations
 RTBSE|             899     0.40780168E-007     0.10000000E+002                6
 RTBSE| Simulation step         Convergence     Electron number  ETRS Iterations
 RTBSE|             900     0.30005606E-007     0.10000000E+002                6
 RTBSE| Simulation step         Convergence     Electron number  ETRS Iterations
 RTBSE|             901     0.19505900E-007     0.10000000E+002                6
 RTBSE| Simulation step         Convergence     Electron number  ETRS Iterations
 RTBSE|             902     0.29924064E-007     0.10000000E+002                6
 RTBSE| Simulation step         Convergence     Electron number  ETRS Iterations
 RTBSE|             903     0.41791226E-007     0.10000000E+002                6
 RTBSE| Simulation step         Convergence     Electron number  ETRS Iterations
 RTBSE|             904     0.53381471E-007     0.10000000E+002                6
 RTBSE| Simulation step         Convergence     Electron number  ETRS Iterations
 RTBSE|             905     0.63882825E-007     0.10000000E+002                6
 RTBSE| Simulation step         Convergence     Electron number  ETRS Iterations
 RTBSE|             906     0.72710024E-007     0.10000000E+002                6
 RTBSE| Simulation step         Convergence     Electron number  ETRS Iterations
 RTBSE|             907     0.79508752E-007     0.10000000E+002                6
 RTBSE| Simulation step         Convergence     Electron number  ETRS Iterations
 RTBSE|             908     0.84165804E-007     0.10000000E+002                6
 RTBSE| Simulation step         Convergence     Electron number  ETRS Iterations
 RTBSE|             909     0.86684248E-007     0.10000000E+002                6
 RTBSE| Simulation step         Convergence     Electron number  ETRS Iterations
 RTBSE|             910     0.87207320E-007     0.10000000E+002                6
 RTBSE| Simulation step         Convergence     Electron number  ETRS Iterations
 RTBSE|             911     0.86094481E-007     0.10000000E+002                6
 RTBSE| Simulation step         Convergence     Electron number  ETRS Iterations
 RTBSE|             912     0.83726748E-007     0.10000000E+002                6
 RTBSE| Simulation step         Convergence     Electron number  ETRS Iterations
 RTBSE|             913     0.81380819E-007     0.10000000E+002                6
 RTBSE| Simulation step         Convergence     Electron number  ETRS Iterations
 RTBSE|             914     0.80638904E-007     0.10000000E+002                6
 RTBSE| Simulation step         Convergence     Electron number  ETRS Iterations
 RTBSE|             915     0.79812271E-007     0.10000000E+002                6
 RTBSE| Simulation step         Convergence     Electron number  ETRS Iterations
 RTBSE|             916     0.79793851E-007     0.10000000E+002                6
 RTBSE| Simulation step         Convergence     Electron number  ETRS Iterations
 RTBSE|             917     0.79877912E-007     0.10000000E+002                6
 RTBSE| Simulation step         Convergence     Electron number  ETRS Iterations
 RTBSE|             918     0.80040003E-007     0.10000000E+002                6
 RTBSE| Simulation step         Convergence     Electron number  ETRS Iterations
 RTBSE|             919     0.80064237E-007     0.10000000E+002                6
 RTBSE| Simulation step         Convergence     Electron number  ETRS Iterations
 RTBSE|             920     0.79556820E-007     0.10000000E+002                6
 RTBSE| Simulation step         Convergence     Electron number  ETRS Iterations
 RTBSE|             921     0.77894740E-007     0.10000000E+002                6
 RTBSE| Simulation step         Convergence     Electron number  ETRS Iterations
 RTBSE|             922     0.74414846E-007     0.10000000E+002                6
 RTBSE| Simulation step         Convergence     Electron number  ETRS Iterations
 RTBSE|             923     0.68423758E-007     0.10000000E+002                6
 RTBSE| Simulation step         Convergence     Electron number  ETRS Iterations
 RTBSE|             924     0.59381144E-007     0.10000000E+002                6
 RTBSE| Simulation step         Convergence     Electron number  ETRS Iterations
 RTBSE|             925     0.46984935E-007     0.10000000E+002                6
 RTBSE| Simulation step         Convergence     Electron number  ETRS Iterations
 RTBSE|             926     0.31176650E-007     0.10000000E+002                6
 RTBSE| Simulation step         Convergence     Electron number  ETRS Iterations
 RTBSE|             927     0.41060838E-007     0.10000000E+002                6
 RTBSE| Simulation step         Convergence     Electron number  ETRS Iterations
 RTBSE|             928     0.59442638E-007     0.10000000E+002                6
 RTBSE| Simulation step         Convergence     Electron number  ETRS Iterations
 RTBSE|             929     0.78759297E-007     0.10000000E+002                6
 RTBSE| Simulation step         Convergence     Electron number  ETRS Iterations
 RTBSE|             930     0.97281654E-007     0.10000000E+002                6
 RTBSE| Simulation step         Convergence     Electron number  ETRS Iterations
 RTBSE|             931     0.20722102E-007     0.10000000E+002                7
 RTBSE| Simulation step         Convergence     Electron number  ETRS Iterations
 RTBSE|             932     0.23256969E-007     0.10000000E+002                7
 RTBSE| Simulation step         Convergence     Electron number  ETRS Iterations
 RTBSE|             933     0.24991465E-007     0.10000000E+002                7
 RTBSE| Simulation step         Convergence     Electron number  ETRS Iterations
 RTBSE|             934     0.25886522E-007     0.10000000E+002                7
 RTBSE| Simulation step         Convergence     Electron number  ETRS Iterations
 RTBSE|             935     0.25960295E-007     0.10000000E+002                7
 RTBSE| Simulation step         Convergence     Electron number  ETRS Iterations
 RTBSE|             936     0.25340236E-007     0.10000000E+002                7
 RTBSE| Simulation step         Convergence     Electron number  ETRS Iterations
 RTBSE|             937     0.24177486E-007     0.10000000E+002                7
 RTBSE| Simulation step         Convergence     Electron number  ETRS Iterations
 RTBSE|             938     0.22623986E-007     0.10000000E+002                7
 RTBSE| Simulation step         Convergence     Electron number  ETRS Iterations
 RTBSE|             939     0.20879857E-007     0.10000000E+002                7
 RTBSE| Simulation step         Convergence     Electron number  ETRS Iterations
 RTBSE|             940     0.19069485E-007     0.10000000E+002                7
 RTBSE| Simulation step         Convergence     Electron number  ETRS Iterations
 RTBSE|             941     0.17347813E-007     0.10000000E+002                7
 RTBSE| Simulation step         Convergence     Electron number  ETRS Iterations
 RTBSE|             942     0.99653812E-007     0.10000000E+002                6
 RTBSE| Simulation step         Convergence     Electron number  ETRS Iterations
 RTBSE|             943     0.92976843E-007     0.10000000E+002                6
 RTBSE| Simulation step         Convergence     Electron number  ETRS Iterations
 RTBSE|             944     0.86920308E-007     0.10000000E+002                6
 RTBSE| Simulation step         Convergence     Electron number  ETRS Iterations
 RTBSE|             945     0.81325671E-007     0.10000000E+002                6
 RTBSE| Simulation step         Convergence     Electron number  ETRS Iterations
 RTBSE|             946     0.75919941E-007     0.10000000E+002                6
 RTBSE| Simulation step         Convergence     Electron number  ETRS Iterations
 RTBSE|             947     0.70284072E-007     0.10000000E+002                6
 RTBSE| Simulation step         Convergence     Electron number  ETRS Iterations
 RTBSE|             948     0.63987648E-007     0.10000000E+002                6
 RTBSE| Simulation step         Convergence     Electron number  ETRS Iterations
 RTBSE|             949     0.56624448E-007     0.10000000E+002                6
 RTBSE| Simulation step         Convergence     Electron number  ETRS Iterations
 RTBSE|             950     0.48499395E-007     0.10000000E+002                6
 RTBSE| Simulation step         Convergence     Electron number  ETRS Iterations
 RTBSE|             951     0.38382418E-007     0.10000000E+002                6
 RTBSE| Simulation step         Convergence     Electron number  ETRS Iterations
 RTBSE|             952     0.26406340E-007     0.10000000E+002                6
 RTBSE| Simulation step         Convergence     Electron number  ETRS Iterations
 RTBSE|             953     0.24107011E-007     0.10000000E+002                6
 RTBSE| Simulation step         Convergence     Electron number  ETRS Iterations
 RTBSE|             954     0.36332287E-007     0.10000000E+002                6
 RTBSE| Simulation step         Convergence     Electron number  ETRS Iterations
 RTBSE|             955     0.49003184E-007     0.10000000E+002                6
 RTBSE| Simulation step         Convergence     Electron number  ETRS Iterations
 RTBSE|             956     0.60668591E-007     0.10000000E+002                6
 RTBSE| Simulation step         Convergence     Electron number  ETRS Iterations
 RTBSE|             957     0.70576491E-007     0.10000000E+002                6
 RTBSE| Simulation step         Convergence     Electron number  ETRS Iterations
 RTBSE|             958     0.78202624E-007     0.10000000E+002                6
 RTBSE| Simulation step         Convergence     Electron number  ETRS Iterations
 RTBSE|             959     0.83351336E-007     0.10000000E+002                6
 RTBSE| Simulation step         Convergence     Electron number  ETRS Iterations
 RTBSE|             960     0.86073575E-007     0.10000000E+002                6
 RTBSE| Simulation step         Convergence     Electron number  ETRS Iterations
 RTBSE|             961     0.86580132E-007     0.10000000E+002                6
 RTBSE| Simulation step         Convergence     Electron number  ETRS Iterations
 RTBSE|             962     0.85302279E-007     0.10000000E+002                6
 RTBSE| Simulation step         Convergence     Electron number  ETRS Iterations
 RTBSE|             963     0.82740038E-007     0.10000000E+002                6
 RTBSE| Simulation step         Convergence     Electron number  ETRS Iterations
 RTBSE|             964     0.79471663E-007     0.10000000E+002                6
 RTBSE| Simulation step         Convergence     Electron number  ETRS Iterations
 RTBSE|             965     0.78438061E-007     0.10000000E+002                6
 RTBSE| Simulation step         Convergence     Electron number  ETRS Iterations
 RTBSE|             966     0.77491588E-007     0.10000000E+002                6
 RTBSE| Simulation step         Convergence     Electron number  ETRS Iterations
 RTBSE|             967     0.77644126E-007     0.10000000E+002                6
 RTBSE| Simulation step         Convergence     Electron number  ETRS Iterations
 RTBSE|             968     0.78303438E-007     0.10000000E+002                6
 RTBSE| Simulation step         Convergence     Electron number  ETRS Iterations
 RTBSE|             969     0.79352480E-007     0.10000000E+002                6
 RTBSE| Simulation step         Convergence     Electron number  ETRS Iterations
 RTBSE|             970     0.80486126E-007     0.10000000E+002                6
 RTBSE| Simulation step         Convergence     Electron number  ETRS Iterations
 RTBSE|             971     0.81188024E-007     0.10000000E+002                6
 RTBSE| Simulation step         Convergence     Electron number  ETRS Iterations
 RTBSE|             972     0.80738514E-007     0.10000000E+002                6
 RTBSE| Simulation step         Convergence     Electron number  ETRS Iterations
 RTBSE|             973     0.78378344E-007     0.10000000E+002                6
 RTBSE| Simulation step         Convergence     Electron number  ETRS Iterations
 RTBSE|             974     0.73320586E-007     0.10000000E+002                6
 RTBSE| Simulation step         Convergence     Electron number  ETRS Iterations
 RTBSE|             975     0.64938446E-007     0.10000000E+002                6
 RTBSE| Simulation step         Convergence     Electron number  ETRS Iterations
 RTBSE|             976     0.52816772E-007     0.10000000E+002                6
 RTBSE| Simulation step         Convergence     Electron number  ETRS Iterations
 RTBSE|             977     0.36903951E-007     0.10000000E+002                6
 RTBSE| Simulation step         Convergence     Electron number  ETRS Iterations
 RTBSE|             978     0.37034507E-007     0.10000000E+002                6
 RTBSE| Simulation step         Convergence     Electron number  ETRS Iterations
 RTBSE|             979     0.55478799E-007     0.10000000E+002                6
 RTBSE| Simulation step         Convergence     Electron number  ETRS Iterations
 RTBSE|             980     0.75239350E-007     0.10000000E+002                6
 RTBSE| Simulation step         Convergence     Electron number  ETRS Iterations
 RTBSE|             981     0.94269387E-007     0.10000000E+002                6
 RTBSE| Simulation step         Convergence     Electron number  ETRS Iterations
 RTBSE|             982     0.20248932E-007     0.10000000E+002                7
 RTBSE| Simulation step         Convergence     Electron number  ETRS Iterations
 RTBSE|             983     0.22812923E-007     0.10000000E+002                7
 RTBSE| Simulation step         Convergence     Electron number  ETRS Iterations
 RTBSE|             984     0.24497115E-007     0.10000000E+002                7
 RTBSE| Simulation step         Convergence     Electron number  ETRS Iterations
 RTBSE|             985     0.25274987E-007     0.10000000E+002                7
 RTBSE| Simulation step         Convergence     Electron number  ETRS Iterations
 RTBSE|             986     0.25205411E-007     0.10000000E+002                7
 RTBSE| Simulation step         Convergence     Electron number  ETRS Iterations
 RTBSE|             987     0.24410169E-007     0.10000000E+002                7
 RTBSE| Simulation step         Convergence     Electron number  ETRS Iterations
 RTBSE|             988     0.23097483E-007     0.10000000E+002                7
 RTBSE| Simulation step         Convergence     Electron number  ETRS Iterations
 RTBSE|             989     0.21457659E-007     0.10000000E+002                7
 RTBSE| Simulation step         Convergence     Electron number  ETRS Iterations
 RTBSE|             990     0.19673153E-007     0.10000000E+002                7
 RTBSE| Simulation step         Convergence     Electron number  ETRS Iterations
 RTBSE|             991     0.17950476E-007     0.10000000E+002                7
 RTBSE| Simulation step         Convergence     Electron number  ETRS Iterations
 RTBSE|             992     0.99547665E-007     0.10000000E+002                6
 RTBSE| Simulation step         Convergence     Electron number  ETRS Iterations
 RTBSE|             993     0.93354072E-007     0.10000000E+002                6
 RTBSE| Simulation step         Convergence     Electron number  ETRS Iterations
 RTBSE|             994     0.88381027E-007     0.10000000E+002                6
 RTBSE| Simulation step         Convergence     Electron number  ETRS Iterations
 RTBSE|             995     0.84583504E-007     0.10000000E+002                6
 RTBSE| Simulation step         Convergence     Electron number  ETRS Iterations
 RTBSE|             996     0.81649031E-007     0.10000000E+002                6
 RTBSE| Simulation step         Convergence     Electron number  ETRS Iterations
 RTBSE|             997     0.78955347E-007     0.10000000E+002                6
 RTBSE| Simulation step         Convergence     Electron number  ETRS Iterations
 RTBSE|             998     0.75803600E-007     0.10000000E+002                6
 RTBSE| Simulation step         Convergence     Electron number  ETRS Iterations
 RTBSE|             999     0.71543272E-007     0.10000000E+002                6
 RTBSE| Simulation step         Convergence     Electron number  ETRS Iterations
 RTBSE|            1000     0.65723091E-007     0.10000000E+002                6
 RTBSE| Simulation step         Convergence     Electron number  ETRS Iterations
 RTBSE|            1001     0.58636358E-007     0.10000000E+002                6
 RTBSE| Simulation step         Convergence     Electron number  ETRS Iterations
 RTBSE|            1002     0.48804889E-007     0.10000000E+002                6
 RTBSE| Simulation step         Convergence     Electron number  ETRS Iterations
 RTBSE|            1003     0.36409245E-007     0.10000000E+002                6
 RTBSE| Simulation step         Convergence     Electron number  ETRS Iterations
 RTBSE|            1004     0.22395251E-007     0.10000000E+002                6
 RTBSE| Simulation step         Convergence     Electron number  ETRS Iterations
 RTBSE|            1005     0.31533767E-007     0.10000000E+002                6
 RTBSE| Simulation step         Convergence     Electron number  ETRS Iterations
 RTBSE|            1006     0.45318440E-007     0.10000000E+002                6
 RTBSE| Simulation step         Convergence     Electron number  ETRS Iterations
 RTBSE|            1007     0.58310190E-007     0.10000000E+002                6
 RTBSE| Simulation step         Convergence     Electron number  ETRS Iterations
 RTBSE|            1008     0.69369151E-007     0.10000000E+002                6
 RTBSE| Simulation step         Convergence     Electron number  ETRS Iterations
 RTBSE|            1009     0.77847131E-007     0.10000000E+002                6
 RTBSE| Simulation step         Convergence     Electron number  ETRS Iterations
 RTBSE|            1010     0.83537036E-007     0.10000000E+002                6
 RTBSE| Simulation step         Convergence     Electron number  ETRS Iterations
 RTBSE|            1011     0.86429774E-007     0.10000000E+002                6
 RTBSE| Simulation step         Convergence     Electron number  ETRS Iterations
 RTBSE|            1012     0.86817237E-007     0.10000000E+002                6
 RTBSE| Simulation step         Convergence     Electron number  ETRS Iterations
 RTBSE|            1013     0.85260102E-007     0.10000000E+002                6
 RTBSE| Simulation step         Convergence     Electron number  ETRS Iterations
 RTBSE|            1014     0.82328814E-007     0.10000000E+002                6
 RTBSE| Simulation step         Convergence     Electron number  ETRS Iterations
 RTBSE|            1015     0.78733364E-007     0.10000000E+002                6
 RTBSE| Simulation step         Convergence     Electron number  ETRS Iterations
 RTBSE|            1016     0.76773663E-007     0.10000000E+002                6
 RTBSE| Simulation step         Convergence     Electron number  ETRS Iterations
 RTBSE|            1017     0.75625816E-007     0.10000000E+002                6
 RTBSE| Simulation step         Convergence     Electron number  ETRS Iterations
 RTBSE|            1018     0.75528237E-007     0.10000000E+002                6
 RTBSE| Simulation step         Convergence     Electron number  ETRS Iterations
 RTBSE|            1019     0.76393198E-007     0.10000000E+002                6
 RTBSE| Simulation step         Convergence     Electron number  ETRS Iterations
 RTBSE|            1020     0.77853523E-007     0.10000000E+002                6
 RTBSE| Simulation step         Convergence     Electron number  ETRS Iterations
 RTBSE|            1021     0.79642114E-007     0.10000000E+002                6
 RTBSE| Simulation step         Convergence     Electron number  ETRS Iterations
 RTBSE|            1022     0.81210497E-007     0.10000000E+002                6
 RTBSE| Simulation step         Convergence     Electron number  ETRS Iterations
 RTBSE|            1023     0.81809564E-007     0.10000000E+002                6
 RTBSE| Simulation step         Convergence     Electron number  ETRS Iterations
 RTBSE|            1024     0.80558318E-007     0.10000000E+002                6
 RTBSE| Simulation step         Convergence     Electron number  ETRS Iterations
 RTBSE|            1025     0.76560000E-007     0.10000000E+002                6
 RTBSE| Simulation step         Convergence     Electron number  ETRS Iterations
 RTBSE|            1026     0.69092540E-007     0.10000000E+002                6
 RTBSE| Simulation step         Convergence     Electron number  ETRS Iterations
 RTBSE|            1027     0.57701699E-007     0.10000000E+002                6
 RTBSE| Simulation step         Convergence     Electron number  ETRS Iterations
 RTBSE|            1028     0.42328832E-007     0.10000000E+002                6
 RTBSE| Simulation step         Convergence     Electron number  ETRS Iterations
 RTBSE|            1029     0.32239556E-007     0.10000000E+002                6
 RTBSE| Simulation step         Convergence     Electron number  ETRS Iterations
 RTBSE|            1030     0.50075871E-007     0.10000000E+002                6
 RTBSE| Simulation step         Convergence     Electron number  ETRS Iterations
 RTBSE|            1031     0.69911591E-007     0.10000000E+002                6
 RTBSE| Simulation step         Convergence     Electron number  ETRS Iterations
 RTBSE|            1032     0.89223243E-007     0.10000000E+002                6
 RTBSE| Simulation step         Convergence     Electron number  ETRS Iterations
 RTBSE|            1033     0.19349639E-007     0.10000000E+002                7
 RTBSE| Simulation step         Convergence     Electron number  ETRS Iterations
 RTBSE|            1034     0.21943173E-007     0.10000000E+002                7
 RTBSE| Simulation step         Convergence     Electron number  ETRS Iterations
 RTBSE|            1035     0.23640879E-007     0.10000000E+002                7
 RTBSE| Simulation step         Convergence     Electron number  ETRS Iterations
 RTBSE|            1036     0.24395577E-007     0.10000000E+002                7
 RTBSE| Simulation step         Convergence     Electron number  ETRS Iterations
 RTBSE|            1037     0.24279775E-007     0.10000000E+002                7
 RTBSE| Simulation step         Convergence     Electron number  ETRS Iterations
 RTBSE|            1038     0.23427852E-007     0.10000000E+002                7
 RTBSE| Simulation step         Convergence     Electron number  ETRS Iterations
 RTBSE|            1039     0.22079716E-007     0.10000000E+002                7
 RTBSE| Simulation step         Convergence     Electron number  ETRS Iterations
 RTBSE|            1040     0.20430712E-007     0.10000000E+002                7
 RTBSE| Simulation step         Convergence     Electron number  ETRS Iterations
 RTBSE|            1041     0.18753097E-007     0.10000000E+002                7
 RTBSE| Simulation step         Convergence     Electron number  ETRS Iterations
 RTBSE|            1042     0.17205781E-007     0.10000000E+002                7
 RTBSE| Simulation step         Convergence     Electron number  ETRS Iterations
 RTBSE|            1043     0.94162399E-007     0.10000000E+002                6
 RTBSE| Simulation step         Convergence     Electron number  ETRS Iterations
 RTBSE|            1044     0.89549055E-007     0.10000000E+002                6
 RTBSE| Simulation step         Convergence     Electron number  ETRS Iterations
 RTBSE|            1045     0.86593965E-007     0.10000000E+002                6
 RTBSE| Simulation step         Convergence     Electron number  ETRS Iterations
 RTBSE|            1046     0.85145085E-007     0.10000000E+002                6
 RTBSE| Simulation step         Convergence     Electron number  ETRS Iterations
 RTBSE|            1047     0.84618285E-007     0.10000000E+002                6
 RTBSE| Simulation step         Convergence     Electron number  ETRS Iterations
 RTBSE|            1048     0.84183298E-007     0.10000000E+002                6
 RTBSE| Simulation step         Convergence     Electron number  ETRS Iterations
 RTBSE|            1049     0.82970111E-007     0.10000000E+002                6
 RTBSE| Simulation step         Convergence     Electron number  ETRS Iterations
 RTBSE|            1050     0.80156947E-007     0.10000000E+002                6
 RTBSE| Simulation step         Convergence     Electron number  ETRS Iterations
 RTBSE|            1051     0.75106439E-007     0.10000000E+002                6
 RTBSE| Simulation step         Convergence     Electron number  ETRS Iterations
 RTBSE|            1052     0.68406317E-007     0.10000000E+002                6
 RTBSE| Simulation step         Convergence     Electron number  ETRS Iterations
 RTBSE|            1053     0.58381226E-007     0.10000000E+002                6
 RTBSE| Simulation step         Convergence     Electron number  ETRS Iterations
 RTBSE|            1054     0.45275734E-007     0.10000000E+002                6
 RTBSE| Simulation step         Convergence     Electron number  ETRS Iterations
 RTBSE|            1055     0.29926402E-007     0.10000000E+002                6
 RTBSE| Simulation step         Convergence     Electron number  ETRS Iterations
 RTBSE|            1056     0.28144380E-007     0.10000000E+002                6
 RTBSE| Simulation step         Convergence     Electron number  ETRS Iterations
 RTBSE|            1057     0.42775364E-007     0.10000000E+002                6
 RTBSE| Simulation step         Convergence     Electron number  ETRS Iterations
 RTBSE|            1058     0.56926170E-007     0.10000000E+002                6
 RTBSE| Simulation step         Convergence     Electron number  ETRS Iterations
 RTBSE|            1059     0.69049381E-007     0.10000000E+002                6
 RTBSE| Simulation step         Convergence     Electron number  ETRS Iterations
 RTBSE|            1060     0.78335046E-007     0.10000000E+002                6
 RTBSE| Simulation step         Convergence     Electron number  ETRS Iterations
 RTBSE|            1061     0.84449734E-007     0.10000000E+002                6
 RTBSE| Simulation step         Convergence     Electron number  ETRS Iterations
 RTBSE|            1062     0.87465725E-007     0.10000000E+002                6
 RTBSE| Simulation step         Convergence     Electron number  ETRS Iterations
 RTBSE|            1063     0.87694013E-007     0.10000000E+002                6
 RTBSE| Simulation step         Convergence     Electron number  ETRS Iterations
 RTBSE|            1064     0.85698792E-007     0.10000000E+002                6
 RTBSE| Simulation step         Convergence     Electron number  ETRS Iterations
 RTBSE|            1065     0.82231209E-007     0.10000000E+002                6
 RTBSE| Simulation step         Convergence     Electron number  ETRS Iterations
 RTBSE|            1066     0.77984673E-007     0.10000000E+002                6
 RTBSE| Simulation step         Convergence     Electron number  ETRS Iterations
 RTBSE|            1067     0.75319801E-007     0.10000000E+002                6
 RTBSE| Simulation step         Convergence     Electron number  ETRS Iterations
 RTBSE|            1068     0.73507678E-007     0.10000000E+002                6
 RTBSE| Simulation step         Convergence     Electron number  ETRS Iterations
 RTBSE|            1069     0.72735023E-007     0.10000000E+002                6
 RTBSE| Simulation step         Convergence     Electron number  ETRS Iterations
 RTBSE|            1070     0.73311562E-007     0.10000000E+002                6
 RTBSE| Simulation step         Convergence     Electron number  ETRS Iterations
 RTBSE|            1071     0.74826457E-007     0.10000000E+002                6
 RTBSE| Simulation step         Convergence     Electron number  ETRS Iterations
 RTBSE|            1072     0.76988896E-007     0.10000000E+002                6
 RTBSE| Simulation step         Convergence     Electron number  ETRS Iterations
 RTBSE|            1073     0.79274117E-007     0.10000000E+002                6
 RTBSE| Simulation step         Convergence     Electron number  ETRS Iterations
 RTBSE|            1074     0.80880652E-007     0.10000000E+002                6
 RTBSE| Simulation step         Convergence     Electron number  ETRS Iterations
 RTBSE|            1075     0.80886809E-007     0.10000000E+002                6
 RTBSE| Simulation step         Convergence     Electron number  ETRS Iterations
 RTBSE|            1076     0.78301750E-007     0.10000000E+002                6
 RTBSE| Simulation step         Convergence     Electron number  ETRS Iterations
 RTBSE|            1077     0.72263374E-007     0.10000000E+002                6
 RTBSE| Simulation step         Convergence     Electron number  ETRS Iterations
 RTBSE|            1078     0.62171873E-007     0.10000000E+002                6
 RTBSE| Simulation step         Convergence     Electron number  ETRS Iterations
 RTBSE|            1079     0.47847024E-007     0.10000000E+002                6
 RTBSE| Simulation step         Convergence     Electron number  ETRS Iterations
 RTBSE|            1080     0.29533324E-007     0.10000000E+002                6
 RTBSE| Simulation step         Convergence     Electron number  ETRS Iterations
 RTBSE|            1081     0.43866143E-007     0.10000000E+002                6
 RTBSE| Simulation step         Convergence     Electron number  ETRS Iterations
 RTBSE|            1082     0.63493827E-007     0.10000000E+002                6
 RTBSE| Simulation step         Convergence     Electron number  ETRS Iterations
 RTBSE|            1083     0.82972610E-007     0.10000000E+002                6
 RTBSE| Simulation step         Convergence     Electron number  ETRS Iterations
 RTBSE|            1084     0.18225048E-007     0.10000000E+002                7
 RTBSE| Simulation step         Convergence     Electron number  ETRS Iterations
 RTBSE|            1085     0.20909829E-007     0.10000000E+002                7
 RTBSE| Simulation step         Convergence     Electron number  ETRS Iterations
 RTBSE|            1086     0.22671873E-007     0.10000000E+002                7
 RTBSE| Simulation step         Convergence     Electron number  ETRS Iterations
 RTBSE|            1087     0.23458834E-007     0.10000000E+002                7
 RTBSE| Simulation step         Convergence     Electron number  ETRS Iterations
 RTBSE|            1088     0.23363024E-007     0.10000000E+002                7
 RTBSE| Simulation step         Convergence     Electron number  ETRS Iterations
 RTBSE|            1089     0.22542528E-007     0.10000000E+002                7
 RTBSE| Simulation step         Convergence     Electron number  ETRS Iterations
 RTBSE|            1090     0.21222867E-007     0.10000000E+002                7
 RTBSE| Simulation step         Convergence     Electron number  ETRS Iterations
 RTBSE|            1091     0.19654568E-007     0.10000000E+002                7
 RTBSE| Simulation step         Convergence     Electron number  ETRS Iterations
 RTBSE|            1092     0.18092212E-007     0.10000000E+002                7
 RTBSE| Simulation step         Convergence     Electron number  ETRS Iterations
 RTBSE|            1093     0.95407149E-007     0.10000000E+002                6
 RTBSE| Simulation step         Convergence     Electron number  ETRS Iterations
 RTBSE|            1094     0.90418973E-007     0.10000000E+002                6
 RTBSE| Simulation step         Convergence     Electron number  ETRS Iterations
 RTBSE|            1095     0.87207151E-007     0.10000000E+002                6
 RTBSE| Simulation step         Convergence     Electron number  ETRS Iterations
 RTBSE|            1096     0.85920401E-007     0.10000000E+002                6
 RTBSE| Simulation step         Convergence     Electron number  ETRS Iterations
 RTBSE|            1097     0.86301717E-007     0.10000000E+002                6
 RTBSE| Simulation step         Convergence     Electron number  ETRS Iterations
 RTBSE|            1098     0.87623397E-007     0.10000000E+002                6
 RTBSE| Simulation step         Convergence     Electron number  ETRS Iterations
 RTBSE|            1099     0.88935020E-007     0.10000000E+002                6
 RTBSE| Simulation step         Convergence     Electron number  ETRS Iterations
 RTBSE|            1100     0.89192688E-007     0.10000000E+002                6
 RTBSE| Simulation step         Convergence     Electron number  ETRS Iterations
 RTBSE|            1101     0.87450784E-007     0.10000000E+002                6
 RTBSE| Simulation step         Convergence     Electron number  ETRS Iterations
 RTBSE|            1102     0.83053003E-007     0.10000000E+002                6
 RTBSE| Simulation step         Convergence     Electron number  ETRS Iterations
 RTBSE|            1103     0.76461618E-007     0.10000000E+002                6
 RTBSE| Simulation step         Convergence     Electron number  ETRS Iterations
 RTBSE|            1104     0.66365724E-007     0.10000000E+002                6
 RTBSE| Simulation step         Convergence     Electron number  ETRS Iterations
 RTBSE|            1105     0.52762538E-007     0.10000000E+002                6
 RTBSE| Simulation step         Convergence     Electron number  ETRS Iterations
 RTBSE|            1106     0.36353454E-007     0.10000000E+002                6
 RTBSE| Simulation step         Convergence     Electron number  ETRS Iterations
 RTBSE|            1107     0.25661743E-007     0.10000000E+002                6
 RTBSE| Simulation step         Convergence     Electron number  ETRS Iterations
 RTBSE|            1108     0.40730582E-007     0.10000000E+002                6
 RTBSE| Simulation step         Convergence     Electron number  ETRS Iterations
 RTBSE|            1109     0.55842722E-007     0.10000000E+002                6
 RTBSE| Simulation step         Convergence     Electron number  ETRS Iterations
 RTBSE|            1110     0.68817047E-007     0.10000000E+002                6
 RTBSE| Simulation step         Convergence     Electron number  ETRS Iterations
 RTBSE|            1111     0.78729044E-007     0.10000000E+002                6
 RTBSE| Simulation step         Convergence     Electron number  ETRS Iterations
 RTBSE|            1112     0.85146375E-007     0.10000000E+002                6
 RTBSE| Simulation step         Convergence     Electron number  ETRS Iterations
 RTBSE|            1113     0.88057463E-007     0.10000000E+002                6
 RTBSE| Simulation step         Convergence     Electron number  ETRS Iterations
 RTBSE|            1114     0.87820612E-007     0.10000000E+002                6
 RTBSE| Simulation step         Convergence     Electron number  ETRS Iterations
 RTBSE|            1115     0.85075221E-007     0.10000000E+002                6
 RTBSE| Simulation step         Convergence     Electron number  ETRS Iterations
 RTBSE|            1116     0.80692337E-007     0.10000000E+002                6
 RTBSE| Simulation step         Convergence     Electron number  ETRS Iterations
 RTBSE|            1117     0.75550096E-007     0.10000000E+002                6
 RTBSE| Simulation step         Convergence     Electron number  ETRS Iterations
 RTBSE|            1118     0.72187964E-007     0.10000000E+002                6
 RTBSE| Simulation step         Convergence     Electron number  ETRS Iterations
 RTBSE|            1119     0.69457510E-007     0.10000000E+002                6
 RTBSE| Simulation step         Convergence     Electron number  ETRS Iterations
 RTBSE|            1120     0.67912832E-007     0.10000000E+002                6
 RTBSE| Simulation step         Convergence     Electron number  ETRS Iterations
 RTBSE|            1121     0.68100340E-007     0.10000000E+002                6
 RTBSE| Simulation step         Convergence     Electron number  ETRS Iterations
 RTBSE|            1122     0.69656958E-007     0.10000000E+002                6
 RTBSE| Simulation step         Convergence     Electron number  ETRS Iterations
 RTBSE|            1123     0.72375525E-007     0.10000000E+002                6
 RTBSE| Simulation step         Convergence     Electron number  ETRS Iterations
 RTBSE|            1124     0.75652667E-007     0.10000000E+002                6
 RTBSE| Simulation step         Convergence     Electron number  ETRS Iterations
 RTBSE|            1125     0.78671547E-007     0.10000000E+002                6
 RTBSE| Simulation step         Convergence     Electron number  ETRS Iterations
 RTBSE|            1126     0.80388552E-007     0.10000000E+002                6
 RTBSE| Simulation step         Convergence     Electron number  ETRS Iterations
 RTBSE|            1127     0.79732436E-007     0.10000000E+002                6
 RTBSE| Simulation step         Convergence     Electron number  ETRS Iterations
 RTBSE|            1128     0.75674788E-007     0.10000000E+002                6
 RTBSE| Simulation step         Convergence     Electron number  ETRS Iterations
 RTBSE|            1129     0.67451285E-007     0.10000000E+002                6
 RTBSE| Simulation step         Convergence     Electron number  ETRS Iterations
 RTBSE|            1130     0.54724973E-007     0.10000000E+002                6
 RTBSE| Simulation step         Convergence     Electron number  ETRS Iterations
 RTBSE|            1131     0.37722201E-007     0.10000000E+002                6
 RTBSE| Simulation step         Convergence     Electron number  ETRS Iterations
 RTBSE|            1132     0.36014410E-007     0.10000000E+002                6
 RTBSE| Simulation step         Convergence     Electron number  ETRS Iterations
 RTBSE|            1133     0.54998117E-007     0.10000000E+002                6
 RTBSE| Simulation step         Convergence     Electron number  ETRS Iterations
 RTBSE|            1134     0.74652725E-007     0.10000000E+002                6
 RTBSE| Simulation step         Convergence     Electron number  ETRS Iterations
 RTBSE|            1135     0.92541485E-007     0.10000000E+002                6
 RTBSE| Simulation step         Convergence     Electron number  ETRS Iterations
 RTBSE|            1136     0.19558867E-007     0.10000000E+002                7
 RTBSE| Simulation step         Convergence     Electron number  ETRS Iterations
 RTBSE|            1137     0.21492566E-007     0.10000000E+002                7
 RTBSE| Simulation step         Convergence     Electron number  ETRS Iterations
 RTBSE|            1138     0.22470793E-007     0.10000000E+002                7
 RTBSE| Simulation step         Convergence     Electron number  ETRS Iterations
 RTBSE|            1139     0.22535647E-007     0.10000000E+002                7
 RTBSE| Simulation step         Convergence     Electron number  ETRS Iterations
 RTBSE|            1140     0.21872762E-007     0.10000000E+002                7
 RTBSE| Simulation step         Convergence     Electron number  ETRS Iterations
 RTBSE|            1141     0.20667414E-007     0.10000000E+002                7
 RTBSE| Simulation step         Convergence     Electron number  ETRS Iterations
 RTBSE|            1142     0.19203164E-007     0.10000000E+002                7
 RTBSE| Simulation step         Convergence     Electron number  ETRS Iterations
 RTBSE|            1143     0.97831659E-007     0.10000000E+002                6
 RTBSE| Simulation step         Convergence     Electron number  ETRS Iterations
 RTBSE|            1144     0.92436116E-007     0.10000000E+002                6
 RTBSE| Simulation step         Convergence     Electron number  ETRS Iterations
 RTBSE|            1145     0.88256754E-007     0.10000000E+002                6
 RTBSE| Simulation step         Convergence     Electron number  ETRS Iterations
 RTBSE|            1146     0.86003262E-007     0.10000000E+002                6
 RTBSE| Simulation step         Convergence     Electron number  ETRS Iterations
 RTBSE|            1147     0.85878783E-007     0.10000000E+002                6
 RTBSE| Simulation step         Convergence     Electron number  ETRS Iterations
 RTBSE|            1148     0.87623728E-007     0.10000000E+002                6
 RTBSE| Simulation step         Convergence     Electron number  ETRS Iterations
 RTBSE|            1149     0.90456396E-007     0.10000000E+002                6
 RTBSE| Simulation step         Convergence     Electron number  ETRS Iterations
 RTBSE|            1150     0.93281060E-007     0.10000000E+002                6
 RTBSE| Simulation step         Convergence     Electron number  ETRS Iterations
 RTBSE|            1151     0.94924598E-007     0.10000000E+002                6
 RTBSE| Simulation step         Convergence     Electron number  ETRS Iterations
 RTBSE|            1152     0.94289754E-007     0.10000000E+002                6
 RTBSE| Simulation step         Convergence     Electron number  ETRS Iterations
 RTBSE|            1153     0.90602057E-007     0.10000000E+002                6
 RTBSE| Simulation step         Convergence     Electron number  ETRS Iterations
 RTBSE|            1154     0.84034251E-007     0.10000000E+002                6
 RTBSE| Simulation step         Convergence     Electron number  ETRS Iterations
 RTBSE|            1155     0.73863266E-007     0.10000000E+002                6
 RTBSE| Simulation step         Convergence     Electron number  ETRS Iterations
 RTBSE|            1156     0.59698026E-007     0.10000000E+002                6
 RTBSE| Simulation step         Convergence     Electron number  ETRS Iterations
 RTBSE|            1157     0.42353016E-007     0.10000000E+002                6
 RTBSE| Simulation step         Convergence     Electron number  ETRS Iterations
 RTBSE|            1158     0.24055664E-007     0.10000000E+002                6
 RTBSE| Simulation step         Convergence     Electron number  ETRS Iterations
 RTBSE|            1159     0.38779153E-007     0.10000000E+002                6
 RTBSE| Simulation step         Convergence     Electron number  ETRS Iterations
 RTBSE|            1160     0.54727121E-007     0.10000000E+002                6
 RTBSE| Simulation step         Convergence     Electron number  ETRS Iterations
 RTBSE|            1161     0.68406636E-007     0.10000000E+002                6
 RTBSE| Simulation step         Convergence     Electron number  ETRS Iterations
 RTBSE|            1162     0.78668854E-007     0.10000000E+002                6
 RTBSE| Simulation step         Convergence     Electron number  ETRS Iterations
 RTBSE|            1163     0.85053409E-007     0.10000000E+002                6
 RTBSE| Simulation step         Convergence     Electron number  ETRS Iterations
 RTBSE|            1164     0.87585522E-007     0.10000000E+002                6
 RTBSE| Simulation step         Convergence     Electron number  ETRS Iterations
 RTBSE|            1165     0.86674131E-007     0.10000000E+002                6
 RTBSE| Simulation step         Convergence     Electron number  ETRS Iterations
 RTBSE|            1166     0.83096834E-007     0.10000000E+002                6
 RTBSE| Simulation step         Convergence     Electron number  ETRS Iterations
 RTBSE|            1167     0.77804903E-007     0.10000000E+002                6
 RTBSE| Simulation step         Convergence     Electron number  ETRS Iterations
 RTBSE|            1168     0.71817496E-007     0.10000000E+002                6
 RTBSE| Simulation step         Convergence     Electron number  ETRS Iterations
 RTBSE|            1169     0.67490333E-007     0.10000000E+002                6
 RTBSE| Simulation step         Convergence     Electron number  ETRS Iterations
 RTBSE|            1170     0.64036674E-007     0.10000000E+002                6
 RTBSE| Simulation step         Convergence     Electron number  ETRS Iterations
 RTBSE|            1171     0.62100808E-007     0.10000000E+002                6
 RTBSE| Simulation step         Convergence     Electron number  ETRS Iterations
 RTBSE|            1172     0.62356783E-007     0.10000000E+002                6
 RTBSE| Simulation step         Convergence     Electron number  ETRS Iterations
 RTBSE|            1173     0.64452673E-007     0.10000000E+002                6
 RTBSE| Simulation step         Convergence     Electron number  ETRS Iterations
 RTBSE|            1174     0.68146974E-007     0.10000000E+002                6
 RTBSE| Simulation step         Convergence     Electron number  ETRS Iterations
 RTBSE|            1175     0.72872701E-007     0.10000000E+002                6
 RTBSE| Simulation step         Convergence     Electron number  ETRS Iterations
 RTBSE|            1176     0.77696038E-007     0.10000000E+002                6
 RTBSE| Simulation step         Convergence     Electron number  ETRS Iterations
 RTBSE|            1177     0.81488354E-007     0.10000000E+002                6
 RTBSE| Simulation step         Convergence     Electron number  ETRS Iterations
 RTBSE|            1178     0.82977672E-007     0.10000000E+002                6
 RTBSE| Simulation step         Convergence     Electron number  ETRS Iterations
 RTBSE|            1179     0.81013920E-007     0.10000000E+002                6
 RTBSE| Simulation step         Convergence     Electron number  ETRS Iterations
 RTBSE|            1180     0.74639275E-007     0.10000000E+002                6
 RTBSE| Simulation step         Convergence     Electron number  ETRS Iterations
 RTBSE|            1181     0.63391701E-007     0.10000000E+002                6
 RTBSE| Simulation step         Convergence     Electron number  ETRS Iterations
 RTBSE|            1182     0.47353751E-007     0.10000000E+002                6
 RTBSE| Simulation step         Convergence     Electron number  ETRS Iterations
 RTBSE|            1183     0.29321909E-007     0.10000000E+002                6
 RTBSE| Simulation step         Convergence     Electron number  ETRS Iterations
 RTBSE|            1184     0.47358812E-007     0.10000000E+002                6
 RTBSE| Simulation step         Convergence     Electron number  ETRS Iterations
 RTBSE|            1185     0.67484671E-007     0.10000000E+002                6
 RTBSE| Simulation step         Convergence     Electron number  ETRS Iterations
 RTBSE|            1186     0.86397815E-007     0.10000000E+002                6
 RTBSE| Simulation step         Convergence     Electron number  ETRS Iterations
 RTBSE|            1187     0.18563906E-007     0.10000000E+002                7
 RTBSE| Simulation step         Convergence     Electron number  ETRS Iterations
 RTBSE|            1188     0.20760761E-007     0.10000000E+002                7
 RTBSE| Simulation step         Convergence     Electron number  ETRS Iterations
 RTBSE|            1189     0.21939196E-007     0.10000000E+002                7
 RTBSE| Simulation step         Convergence     Electron number  ETRS Iterations
 RTBSE|            1190     0.22148131E-007     0.10000000E+002                7
 RTBSE| Simulation step         Convergence     Electron number  ETRS Iterations
 RTBSE|            1191     0.21541850E-007     0.10000000E+002                7
 RTBSE| Simulation step         Convergence     Electron number  ETRS Iterations
 RTBSE|            1192     0.20378813E-007     0.10000000E+002                7
 RTBSE| Simulation step         Convergence     Electron number  ETRS Iterations
 RTBSE|            1193     0.18935341E-007     0.10000000E+002                7
 RTBSE| Simulation step         Convergence     Electron number  ETRS Iterations
 RTBSE|            1194     0.95338200E-007     0.10000000E+002                6
 RTBSE| Simulation step         Convergence     Electron number  ETRS Iterations
 RTBSE|            1195     0.89987358E-007     0.10000000E+002                6
 RTBSE| Simulation step         Convergence     Electron number  ETRS Iterations
 RTBSE|            1196     0.86044718E-007     0.10000000E+002                6
 RTBSE| Simulation step         Convergence     Electron number  ETRS Iterations
 RTBSE|            1197     0.84394081E-007     0.10000000E+002                6
 RTBSE| Simulation step         Convergence     Electron number  ETRS Iterations
 RTBSE|            1198     0.85298042E-007     0.10000000E+002                6
 RTBSE| Simulation step         Convergence     Electron number  ETRS Iterations
 RTBSE|            1199     0.88385831E-007     0.10000000E+002                6
 RTBSE| Simulation step         Convergence     Electron number  ETRS Iterations
 RTBSE|            1200     0.92739065E-007     0.10000000E+002                6
 RTBSE| Simulation step         Convergence     Electron number  ETRS Iterations
 RTBSE|            1201     0.97079806E-007     0.10000000E+002                6
 RTBSE| Simulation step         Convergence     Electron number  ETRS Iterations
 RTBSE|            1202     0.16684184E-007     0.10000000E+002                7
 RTBSE| Simulation step         Convergence     Electron number  ETRS Iterations
 RTBSE|            1203     0.15985067E-007     0.10000000E+002                7
 RTBSE| Simulation step         Convergence     Electron number  ETRS Iterations
 RTBSE|            1204     0.97321568E-007     0.10000000E+002                6
 RTBSE| Simulation step         Convergence     Electron number  ETRS Iterations
 RTBSE|            1205     0.90505861E-007     0.10000000E+002                6
 RTBSE| Simulation step         Convergence     Electron number  ETRS Iterations
 RTBSE|            1206     0.80058598E-007     0.10000000E+002                6
 RTBSE| Simulation step         Convergence     Electron number  ETRS Iterations
 RTBSE|            1207     0.65223821E-007     0.10000000E+002                6
 RTBSE| Simulation step         Convergence     Electron number  ETRS Iterations
 RTBSE|            1208     0.47052248E-007     0.10000000E+002                6
 RTBSE| Simulation step         Convergence     Electron number  ETRS Iterations
 RTBSE|            1209     0.27660933E-007     0.10000000E+002                6
 RTBSE| Simulation step         Convergence     Electron number  ETRS Iterations
 RTBSE|            1210     0.37218201E-007     0.10000000E+002                6
 RTBSE| Simulation step         Convergence     Electron number  ETRS Iterations
 RTBSE|            1211     0.53601400E-007     0.10000000E+002                6
 RTBSE| Simulation step         Convergence     Electron number  ETRS Iterations
 RTBSE|            1212     0.67526067E-007     0.10000000E+002                6
 RTBSE| Simulation step         Convergence     Electron number  ETRS Iterations
 RTBSE|            1213     0.77767342E-007     0.10000000E+002                6
 RTBSE| Simulation step         Convergence     Electron number  ETRS Iterations
 RTBSE|            1214     0.83829058E-007     0.10000000E+002                6
 RTBSE| Simulation step         Convergence     Electron number  ETRS Iterations
 RTBSE|            1215     0.85786207E-007     0.10000000E+002                6
 RTBSE| Simulation step         Convergence     Electron number  ETRS Iterations
 RTBSE|            1216     0.84067868E-007     0.10000000E+002                6
 RTBSE| Simulation step         Convergence     Electron number  ETRS Iterations
 RTBSE|            1217     0.79628150E-007     0.10000000E+002                6
 RTBSE| Simulation step         Convergence     Electron number  ETRS Iterations
 RTBSE|            1218     0.73475522E-007     0.10000000E+002                6
 RTBSE| Simulation step         Convergence     Electron number  ETRS Iterations
 RTBSE|            1219     0.66921988E-007     0.10000000E+002                6
 RTBSE| Simulation step         Convergence     Electron number  ETRS Iterations
 RTBSE|            1220     0.61531624E-007     0.10000000E+002                6
 RTBSE| Simulation step         Convergence     Electron number  ETRS Iterations
 RTBSE|            1221     0.57731394E-007     0.10000000E+002                6
 RTBSE| Simulation step         Convergence     Electron number  ETRS Iterations
 RTBSE|            1222     0.55791720E-007     0.10000000E+002                6
 RTBSE| Simulation step         Convergence     Electron number  ETRS Iterations
 RTBSE|            1223     0.56465454E-007     0.10000000E+002                6
 RTBSE| Simulation step         Convergence     Electron number  ETRS Iterations
 RTBSE|            1224     0.59483414E-007     0.10000000E+002                6
 RTBSE| Simulation step         Convergence     Electron number  ETRS Iterations
 RTBSE|            1225     0.64593167E-007     0.10000000E+002                6
 RTBSE| Simulation step         Convergence     Electron number  ETRS Iterations
 RTBSE|            1226     0.71112644E-007     0.10000000E+002                6
 RTBSE| Simulation step         Convergence     Electron number  ETRS Iterations
 RTBSE|            1227     0.77976884E-007     0.10000000E+002                6
 RTBSE| Simulation step         Convergence     Electron number  ETRS Iterations
 RTBSE|            1228     0.83884494E-007     0.10000000E+002                6
 RTBSE| Simulation step         Convergence     Electron number  ETRS Iterations
 RTBSE|            1229     0.87458705E-007     0.10000000E+002                6
 RTBSE| Simulation step         Convergence     Electron number  ETRS Iterations
 RTBSE|            1230     0.87396761E-007     0.10000000E+002                6
 RTBSE| Simulation step         Convergence     Electron number  ETRS Iterations
 RTBSE|            1231     0.82596169E-007     0.10000000E+002                6
 RTBSE| Simulation step         Convergence     Electron number  ETRS Iterations
 RTBSE|            1232     0.72440061E-007     0.10000000E+002                6
 RTBSE| Simulation step         Convergence     Electron number  ETRS Iterations
 RTBSE|            1233     0.56857208E-007     0.10000000E+002                6
 RTBSE| Simulation step         Convergence     Electron number  ETRS Iterations
 RTBSE|            1234     0.36522326E-007     0.10000000E+002                6
 RTBSE| Simulation step         Convergence     Electron number  ETRS Iterations
 RTBSE|            1235     0.41473154E-007     0.10000000E+002                6
 RTBSE| Simulation step         Convergence     Electron number  ETRS Iterations
 RTBSE|            1236     0.62106737E-007     0.10000000E+002                6
 RTBSE| Simulation step         Convergence     Electron number  ETRS Iterations
 RTBSE|            1237     0.82045265E-007     0.10000000E+002                6
 RTBSE| Simulation step         Convergence     Electron number  ETRS Iterations
 RTBSE|            1238     0.98787752E-007     0.10000000E+002                6
 RTBSE| Simulation step         Convergence     Electron number  ETRS Iterations
 RTBSE|            1239     0.20295043E-007     0.10000000E+002                7
 RTBSE| Simulation step         Convergence     Electron number  ETRS Iterations
 RTBSE|            1240     0.21592775E-007     0.10000000E+002                7
 RTBSE| Simulation step         Convergence     Electron number  ETRS Iterations
 RTBSE|            1241     0.21836181E-007     0.10000000E+002                7
 RTBSE| Simulation step         Convergence     Electron number  ETRS Iterations
 RTBSE|            1242     0.21198910E-007     0.10000000E+002                7
 RTBSE| Simulation step         Convergence     Electron number  ETRS Iterations
 RTBSE|            1243     0.19962699E-007     0.10000000E+002                7
 RTBSE| Simulation step         Convergence     Electron number  ETRS Iterations
 RTBSE|            1244     0.99493188E-007     0.10000000E+002                6
 RTBSE| Simulation step         Convergence     Electron number  ETRS Iterations
 RTBSE|            1245     0.91632596E-007     0.10000000E+002                6
 RTBSE| Simulation step         Convergence     Electron number  ETRS Iterations
 RTBSE|            1246     0.85998586E-007     0.10000000E+002                6
 RTBSE| Simulation step         Convergence     Electron number  ETRS Iterations
 RTBSE|            1247     0.82173742E-007     0.10000000E+002                6
 RTBSE| Simulation step         Convergence     Electron number  ETRS Iterations
 RTBSE|            1248     0.81061363E-007     0.10000000E+002                6
 RTBSE| Simulation step         Convergence     Electron number  ETRS Iterations
 RTBSE|            1249     0.82914752E-007     0.10000000E+002                6
 RTBSE| Simulation step         Convergence     Electron number  ETRS Iterations
 RTBSE|            1250     0.87293475E-007     0.10000000E+002                6
 RTBSE| Simulation step         Convergence     Electron number  ETRS Iterations
 RTBSE|            1251     0.93118415E-007     0.10000000E+002                6
 RTBSE| Simulation step         Convergence     Electron number  ETRS Iterations
 RTBSE|            1252     0.99010964E-007     0.10000000E+002                6
 RTBSE| Simulation step         Convergence     Electron number  ETRS Iterations
 RTBSE|            1253     0.17664727E-007     0.10000000E+002                7
 RTBSE| Simulation step         Convergence     Electron number  ETRS Iterations
 RTBSE|            1254     0.17124433E-007     0.10000000E+002                7
 RTBSE| Simulation step         Convergence     Electron number  ETRS Iterations
 RTBSE|            1255     0.15786780E-007     0.10000000E+002                7
 RTBSE| Simulation step         Convergence     Electron number  ETRS Iterations
 RTBSE|            1256     0.95800561E-007     0.10000000E+002                6
 RTBSE| Simulation step         Convergence     Electron number  ETRS Iterations
 RTBSE|            1257     0.85373689E-007     0.10000000E+002                6
 RTBSE| Simulation step         Convergence     Electron number  ETRS Iterations
 RTBSE|            1258     0.70460225E-007     0.10000000E+002                6
 RTBSE| Simulation step         Convergence     Electron number  ETRS Iterations
 RTBSE|            1259     0.52093163E-007     0.10000000E+002                6
 RTBSE| Simulation step         Convergence     Electron number  ETRS Iterations
 RTBSE|            1260     0.32199992E-007     0.10000000E+002                6
 RTBSE| Simulation step         Convergence     Electron number  ETRS Iterations
 RTBSE|            1261     0.33740643E-007     0.10000000E+002                6
 RTBSE| Simulation step         Convergence     Electron number  ETRS Iterations
 RTBSE|            1262     0.50123116E-007     0.10000000E+002                6
 RTBSE| Simulation step         Convergence     Electron number  ETRS Iterations
 RTBSE|            1263     0.64194984E-007     0.10000000E+002                6
 RTBSE| Simulation step         Convergence     Electron number  ETRS Iterations
 RTBSE|            1264     0.74428762E-007     0.10000000E+002                6
 RTBSE| Simulation step         Convergence     Electron number  ETRS Iterations
 RTBSE|            1265     0.80315514E-007     0.10000000E+002                6
 RTBSE| Simulation step         Convergence     Electron number  ETRS Iterations
 RTBSE|            1266     0.81959289E-007     0.10000000E+002                6
 RTBSE| Simulation step         Convergence     Electron number  ETRS Iterations
 RTBSE|            1267     0.79951356E-007     0.10000000E+002                6
 RTBSE| Simulation step         Convergence     Electron number  ETRS Iterations
 RTBSE|            1268     0.75211257E-007     0.10000000E+002                6
 RTBSE| Simulation step         Convergence     Electron number  ETRS Iterations
 RTBSE|            1269     0.68948835E-007     0.10000000E+002                6
 RTBSE| Simulation step         Convergence     Electron number  ETRS Iterations
 RTBSE|            1270     0.62465997E-007     0.10000000E+002                6
 RTBSE| Simulation step         Convergence     Electron number  ETRS Iterations
 RTBSE|            1271     0.56952435E-007     0.10000000E+002                6
 RTBSE| Simulation step         Convergence     Electron number  ETRS Iterations
 RTBSE|            1272     0.53363150E-007     0.10000000E+002                6
 RTBSE| Simulation step         Convergence     Electron number  ETRS Iterations
 RTBSE|            1273     0.52257221E-007     0.10000000E+002                6
 RTBSE| Simulation step         Convergence     Electron number  ETRS Iterations
 RTBSE|            1274     0.53805947E-007     0.10000000E+002                6
 RTBSE| Simulation step         Convergence     Electron number  ETRS Iterations
 RTBSE|            1275     0.57586014E-007     0.10000000E+002                6
 RTBSE| Simulation step         Convergence     Electron number  ETRS Iterations
 RTBSE|            1276     0.63739586E-007     0.10000000E+002                6
 RTBSE| Simulation step         Convergence     Electron number  ETRS Iterations
 RTBSE|            1277     0.72020508E-007     0.10000000E+002                6
 RTBSE| Simulation step         Convergence     Electron number  ETRS Iterations
 RTBSE|            1278     0.80719480E-007     0.10000000E+002                6
 RTBSE| Simulation step         Convergence     Electron number  ETRS Iterations
 RTBSE|            1279     0.88408976E-007     0.10000000E+002                6
 RTBSE| Simulation step         Convergence     Electron number  ETRS Iterations
 RTBSE|            1280     0.93584993E-007     0.10000000E+002                6
 RTBSE| Simulation step         Convergence     Electron number  ETRS Iterations
 RTBSE|            1281     0.94749057E-007     0.10000000E+002                6
 RTBSE| Simulation step         Convergence     Electron number  ETRS Iterations
 RTBSE|            1282     0.90703279E-007     0.10000000E+002                6
 RTBSE| Simulation step         Convergence     Electron number  ETRS Iterations
 RTBSE|            1283     0.80795752E-007     0.10000000E+002                6
 RTBSE| Simulation step         Convergence     Electron number  ETRS Iterations
 RTBSE|            1284     0.64986101E-007     0.10000000E+002                6
 RTBSE| Simulation step         Convergence     Electron number  ETRS Iterations
 RTBSE|            1285     0.43968208E-007     0.10000000E+002                6
 RTBSE| Simulation step         Convergence     Electron number  ETRS Iterations
 RTBSE|            1286     0.37513203E-007     0.10000000E+002                6
 RTBSE| Simulation step         Convergence     Electron number  ETRS Iterations
 RTBSE|            1287     0.58433252E-007     0.10000000E+002                6
 RTBSE| Simulation step         Convergence     Electron number  ETRS Iterations
 RTBSE|            1288     0.79055130E-007     0.10000000E+002                6
 RTBSE| Simulation step         Convergence     Electron number  ETRS Iterations
 RTBSE|            1289     0.96443547E-007     0.10000000E+002                6
 RTBSE| Simulation step         Convergence     Electron number  ETRS Iterations
 RTBSE|            1290     0.19955498E-007     0.10000000E+002                7
 RTBSE| Simulation step         Convergence     Electron number  ETRS Iterations
 RTBSE|            1291     0.21282764E-007     0.10000000E+002                7
 RTBSE| Simulation step         Convergence     Electron number  ETRS Iterations
 RTBSE|            1292     0.21499945E-007     0.10000000E+002                7
 RTBSE| Simulation step         Convergence     Electron number  ETRS Iterations
 RTBSE|            1293     0.20781213E-007     0.10000000E+002                7
 RTBSE| Simulation step         Convergence     Electron number  ETRS Iterations
 RTBSE|            1294     0.19458400E-007     0.10000000E+002                7
 RTBSE| Simulation step         Convergence     Electron number  ETRS Iterations
 RTBSE|            1295     0.96283005E-007     0.10000000E+002                6
 RTBSE| Simulation step         Convergence     Electron number  ETRS Iterations
 RTBSE|            1296     0.87881477E-007     0.10000000E+002                6
 RTBSE| Simulation step         Convergence     Electron number  ETRS Iterations
 RTBSE|            1297     0.81569656E-007     0.10000000E+002                6
 RTBSE| Simulation step         Convergence     Electron number  ETRS Iterations
 RTBSE|            1298     0.77929388E-007     0.10000000E+002                6
 RTBSE| Simulation step         Convergence     Electron number  ETRS Iterations
 RTBSE|            1299     0.77685399E-007     0.10000000E+002                6
 RTBSE| Simulation step         Convergence     Electron number  ETRS Iterations
 RTBSE|            1300     0.80287070E-007     0.10000000E+002                6
 RTBSE| Simulation step         Convergence     Electron number  ETRS Iterations
 RTBSE|            1301     0.85271145E-007     0.10000000E+002                6
 RTBSE| Simulation step         Convergence     Electron number  ETRS Iterations
 RTBSE|            1302     0.92542692E-007     0.10000000E+002                6
 RTBSE| Simulation step         Convergence     Electron number  ETRS Iterations
 RTBSE|            1303     0.99928302E-007     0.10000000E+002                6
 RTBSE| Simulation step         Convergence     Electron number  ETRS Iterations
 RTBSE|            1304     0.18538731E-007     0.10000000E+002                7
 RTBSE| Simulation step         Convergence     Electron number  ETRS Iterations
 RTBSE|            1305     0.18208780E-007     0.10000000E+002                7
 RTBSE| Simulation step         Convergence     Electron number  ETRS Iterations
 RTBSE|            1306     0.17005114E-007     0.10000000E+002                7
 RTBSE| Simulation step         Convergence     Electron number  ETRS Iterations
 RTBSE|            1307     0.15053976E-007     0.10000000E+002                7
 RTBSE| Simulation step         Convergence     Electron number  ETRS Iterations
 RTBSE|            1308     0.91414386E-007     0.10000000E+002                6
 RTBSE| Simulation step         Convergence     Electron number  ETRS Iterations
 RTBSE|            1309     0.76872730E-007     0.10000000E+002                6
 RTBSE| Simulation step         Convergence     Electron number  ETRS Iterations
 RTBSE|            1310     0.58810836E-007     0.10000000E+002                6
 RTBSE| Simulation step         Convergence     Electron number  ETRS Iterations
 RTBSE|            1311     0.38686154E-007     0.10000000E+002                6
 RTBSE| Simulation step         Convergence     Electron number  ETRS Iterations
 RTBSE|            1312     0.29180155E-007     0.10000000E+002                6
 RTBSE| Simulation step         Convergence     Electron number  ETRS Iterations
 RTBSE|            1313     0.45377893E-007     0.10000000E+002                6
 RTBSE| Simulation step         Convergence     Electron number  ETRS Iterations
 RTBSE|            1314     0.59842529E-007     0.10000000E+002                6
 RTBSE| Simulation step         Convergence     Electron number  ETRS Iterations
 RTBSE|            1315     0.70515080E-007     0.10000000E+002                6
 RTBSE| Simulation step         Convergence     Electron number  ETRS Iterations
 RTBSE|            1316     0.76826818E-007     0.10000000E+002                6
 RTBSE| Simulation step         Convergence     Electron number  ETRS Iterations
 RTBSE|            1317     0.78859829E-007     0.10000000E+002                6
 RTBSE| Simulation step         Convergence     Electron number  ETRS Iterations
 RTBSE|            1318     0.77116664E-007     0.10000000E+002                6
 RTBSE| Simulation step         Convergence     Electron number  ETRS Iterations
 RTBSE|            1319     0.72686715E-007     0.10000000E+002                6
 RTBSE| Simulation step         Convergence     Electron number  ETRS Iterations
 RTBSE|            1320     0.66735732E-007     0.10000000E+002                6
 RTBSE| Simulation step         Convergence     Electron number  ETRS Iterations
 RTBSE|            1321     0.60666081E-007     0.10000000E+002                6
 RTBSE| Simulation step         Convergence     Electron number  ETRS Iterations
 RTBSE|            1322     0.55674787E-007     0.10000000E+002                6
 RTBSE| Simulation step         Convergence     Electron number  ETRS Iterations
 RTBSE|            1323     0.52779225E-007     0.10000000E+002                6
 RTBSE| Simulation step         Convergence     Electron number  ETRS Iterations
 RTBSE|            1324     0.52504775E-007     0.10000000E+002                6
 RTBSE| Simulation step         Convergence     Electron number  ETRS Iterations
 RTBSE|            1325     0.54932814E-007     0.10000000E+002                6
 RTBSE| Simulation step         Convergence     Electron number  ETRS Iterations
 RTBSE|            1326     0.59697541E-007     0.10000000E+002                6
 RTBSE| Simulation step         Convergence     Electron number  ETRS Iterations
 RTBSE|            1327     0.65903841E-007     0.10000000E+002                6
 RTBSE| Simulation step         Convergence     Electron number  ETRS Iterations
 RTBSE|            1328     0.73814934E-007     0.10000000E+002                6
 RTBSE| Simulation step         Convergence     Electron number  ETRS Iterations
 RTBSE|            1329     0.83493178E-007     0.10000000E+002                6
 RTBSE| Simulation step         Convergence     Electron number  ETRS Iterations
 RTBSE|            1330     0.92061197E-007     0.10000000E+002                6
 RTBSE| Simulation step         Convergence     Electron number  ETRS Iterations
 RTBSE|            1331     0.97927509E-007     0.10000000E+002                6
 RTBSE| Simulation step         Convergence     Electron number  ETRS Iterations
 RTBSE|            1332     0.99560545E-007     0.10000000E+002                6
 RTBSE| Simulation step         Convergence     Electron number  ETRS Iterations
 RTBSE|            1333     0.95808145E-007     0.10000000E+002                6
 RTBSE| Simulation step         Convergence     Electron number  ETRS Iterations
 RTBSE|            1334     0.85949981E-007     0.10000000E+002                6
 RTBSE| Simulation step         Convergence     Electron number  ETRS Iterations
 RTBSE|            1335     0.69931677E-007     0.10000000E+002                6
 RTBSE| Simulation step         Convergence     Electron number  ETRS Iterations
 RTBSE|            1336     0.48511368E-007     0.10000000E+002                6
 RTBSE| Simulation step         Convergence     Electron number  ETRS Iterations
 RTBSE|            1337     0.34637170E-007     0.10000000E+002                6
 RTBSE| Simulation step         Convergence     Electron number  ETRS Iterations
 RTBSE|            1338     0.55340140E-007     0.10000000E+002                6
 RTBSE| Simulation step         Convergence     Electron number  ETRS Iterations
 RTBSE|            1339     0.76110242E-007     0.10000000E+002                6
 RTBSE| Simulation step         Convergence     Electron number  ETRS Iterations
 RTBSE|            1340     0.93618271E-007     0.10000000E+002                6
 RTBSE| Simulation step         Convergence     Electron number  ETRS Iterations
 RTBSE|            1341     0.19505268E-007     0.10000000E+002                7
 RTBSE| Simulation step         Convergence     Electron number  ETRS Iterations
 RTBSE|            1342     0.20811764E-007     0.10000000E+002                7
 RTBSE| Simulation step         Convergence     Electron number  ETRS Iterations
 RTBSE|            1343     0.20978129E-007     0.10000000E+002                7
 RTBSE| Simulation step         Convergence     Electron number  ETRS Iterations
 RTBSE|            1344     0.20201616E-007     0.10000000E+002                7
 RTBSE| Simulation step         Convergence     Electron number  ETRS Iterations
 RTBSE|            1345     0.18785059E-007     0.10000000E+002                7
 RTBSE| Simulation step         Convergence     Electron number  ETRS Iterations
 RTBSE|            1346     0.92170035E-007     0.10000000E+002                6
 RTBSE| Simulation step         Convergence     Electron number  ETRS Iterations
 RTBSE|            1347     0.83598289E-007     0.10000000E+002                6
 RTBSE| Simulation step         Convergence     Electron number  ETRS Iterations
 RTBSE|            1348     0.77161575E-007     0.10000000E+002                6
 RTBSE| Simulation step         Convergence     Electron number  ETRS Iterations
 RTBSE|            1349     0.73994442E-007     0.10000000E+002                6
 RTBSE| Simulation step         Convergence     Electron number  ETRS Iterations
 RTBSE|            1350     0.74495315E-007     0.10000000E+002                6
 RTBSE| Simulation step         Convergence     Electron number  ETRS Iterations
 RTBSE|            1351     0.78264541E-007     0.10000000E+002                6
 RTBSE| Simulation step         Convergence     Electron number  ETRS Iterations
 RTBSE|            1352     0.84124688E-007     0.10000000E+002                6
 RTBSE| Simulation step         Convergence     Electron number  ETRS Iterations
 RTBSE|            1353     0.90502632E-007     0.10000000E+002                6
 RTBSE| Simulation step         Convergence     Electron number  ETRS Iterations
 RTBSE|            1354     0.99526549E-007     0.10000000E+002                6
 RTBSE| Simulation step         Convergence     Electron number  ETRS Iterations
 RTBSE|            1355     0.19358200E-007     0.10000000E+002                7
 RTBSE| Simulation step         Convergence     Electron number  ETRS Iterations
 RTBSE|            1356     0.19339238E-007     0.10000000E+002                7
 RTBSE| Simulation step         Convergence     Electron number  ETRS Iterations
 RTBSE|            1357     0.18386945E-007     0.10000000E+002                7
 RTBSE| Simulation step         Convergence     Electron number  ETRS Iterations
 RTBSE|            1358     0.16437957E-007     0.10000000E+002                7
 RTBSE| Simulation step         Convergence     Electron number  ETRS Iterations
 RTBSE|            1359     0.99002327E-007     0.10000000E+002                6
 RTBSE| Simulation step         Convergence     Electron number  ETRS Iterations
 RTBSE|            1360     0.84948831E-007     0.10000000E+002                6
 RTBSE| Simulation step         Convergence     Electron number  ETRS Iterations
 RTBSE|            1361     0.67134978E-007     0.10000000E+002                6
 RTBSE| Simulation step         Convergence     Electron number  ETRS Iterations
 RTBSE|            1362     0.46695330E-007     0.10000000E+002                6
 RTBSE| Simulation step         Convergence     Electron number  ETRS Iterations
 RTBSE|            1363     0.25047914E-007     0.10000000E+002                6
 RTBSE| Simulation step         Convergence     Electron number  ETRS Iterations
 RTBSE|            1364     0.40520409E-007     0.10000000E+002                6
 RTBSE| Simulation step         Convergence     Electron number  ETRS Iterations
 RTBSE|            1365     0.55608620E-007     0.10000000E+002                6
 RTBSE| Simulation step         Convergence     Electron number  ETRS Iterations
 RTBSE|            1366     0.67141503E-007     0.10000000E+002                6
 RTBSE| Simulation step         Convergence     Electron number  ETRS Iterations
 RTBSE|            1367     0.74314833E-007     0.10000000E+002                6
 RTBSE| Simulation step         Convergence     Electron number  ETRS Iterations
 RTBSE|            1368     0.77104584E-007     0.10000000E+002                6
 RTBSE| Simulation step         Convergence     Electron number  ETRS Iterations
 RTBSE|            1369     0.76023272E-007     0.10000000E+002                6
 RTBSE| Simulation step         Convergence     Electron number  ETRS Iterations
 RTBSE|            1370     0.72054585E-007     0.10000000E+002                6
 RTBSE| Simulation step         Convergence     Electron number  ETRS Iterations
 RTBSE|            1371     0.66462426E-007     0.10000000E+002                6
 RTBSE| Simulation step         Convergence     Electron number  ETRS Iterations
 RTBSE|            1372     0.60622249E-007     0.10000000E+002                6
 RTBSE| Simulation step         Convergence     Electron number  ETRS Iterations
 RTBSE|            1373     0.55810339E-007     0.10000000E+002                6
 RTBSE| Simulation step         Convergence     Electron number  ETRS Iterations
 RTBSE|            1374     0.53009117E-007     0.10000000E+002                6
 RTBSE| Simulation step         Convergence     Electron number  ETRS Iterations
 RTBSE|            1375     0.52883752E-007     0.10000000E+002                6
 RTBSE| Simulation step         Convergence     Electron number  ETRS Iterations
 RTBSE|            1376     0.55483861E-007     0.10000000E+002                6
 RTBSE| Simulation step         Convergence     Electron number  ETRS Iterations
 RTBSE|            1377     0.60444392E-007     0.10000000E+002                6
 RTBSE| Simulation step         Convergence     Electron number  ETRS Iterations
 RTBSE|            1378     0.66913658E-007     0.10000000E+002                6
 RTBSE| Simulation step         Convergence     Electron number  ETRS Iterations
 RTBSE|            1379     0.73681375E-007     0.10000000E+002                6
 RTBSE| Simulation step         Convergence     Electron number  ETRS Iterations
 RTBSE|            1380     0.83528077E-007     0.10000000E+002                6
 RTBSE| Simulation step         Convergence     Electron number  ETRS Iterations
 RTBSE|            1381     0.92460864E-007     0.10000000E+002                6
 RTBSE| Simulation step         Convergence     Electron number  ETRS Iterations
 RTBSE|            1382     0.98811079E-007     0.10000000E+002                6
 RTBSE| Simulation step         Convergence     Electron number  ETRS Iterations
 RTBSE|            1383     0.14572386E-007     0.10000000E+002                7
 RTBSE| Simulation step         Convergence     Electron number  ETRS Iterations
 RTBSE|            1384     0.97853635E-007     0.10000000E+002                6
 RTBSE| Simulation step         Convergence     Electron number  ETRS Iterations
 RTBSE|            1385     0.88594011E-007     0.10000000E+002                6
 RTBSE| Simulation step         Convergence     Electron number  ETRS Iterations
 RTBSE|            1386     0.73202633E-007     0.10000000E+002                6
 RTBSE| Simulation step         Convergence     Electron number  ETRS Iterations
 RTBSE|            1387     0.52419342E-007     0.10000000E+002                6
 RTBSE| Simulation step         Convergence     Electron number  ETRS Iterations
 RTBSE|            1388     0.30586137E-007     0.10000000E+002                6
 RTBSE| Simulation step         Convergence     Electron number  ETRS Iterations
 RTBSE|            1389     0.50164272E-007     0.10000000E+002                6
 RTBSE| Simulation step         Convergence     Electron number  ETRS Iterations
 RTBSE|            1390     0.70607025E-007     0.10000000E+002                6
 RTBSE| Simulation step         Convergence     Electron number  ETRS Iterations
 RTBSE|            1391     0.87980076E-007     0.10000000E+002                6
 RTBSE| Simulation step         Convergence     Electron number  ETRS Iterations
 RTBSE|            1392     0.18450303E-007     0.10000000E+002                7
 RTBSE| Simulation step         Convergence     Electron number  ETRS Iterations
 RTBSE|            1393     0.19766883E-007     0.10000000E+002                7
 RTBSE| Simulation step         Convergence     Electron number  ETRS Iterations
 RTBSE|            1394     0.19950423E-007     0.10000000E+002                7
 RTBSE| Simulation step         Convergence     Electron number  ETRS Iterations
 RTBSE|            1395     0.19162364E-007     0.10000000E+002                7
 RTBSE| Simulation step         Convergence     Electron number  ETRS Iterations
 RTBSE|            1396     0.95703447E-007     0.10000000E+002                6
 RTBSE| Simulation step         Convergence     Electron number  ETRS Iterations
 RTBSE|            1397     0.86768032E-007     0.10000000E+002                6
 RTBSE| Simulation step         Convergence     Electron number  ETRS Iterations
 RTBSE|            1398     0.78503945E-007     0.10000000E+002                6
 RTBSE| Simulation step         Convergence     Electron number  ETRS Iterations
 RTBSE|            1399     0.72670804E-007     0.10000000E+002                6
 RTBSE| Simulation step         Convergence     Electron number  ETRS Iterations
 RTBSE|            1400     0.70517801E-007     0.10000000E+002                6
 RTBSE| Simulation step         Convergence     Electron number  ETRS Iterations
 RTBSE|            1401     0.72395828E-007     0.10000000E+002                6
 RTBSE| Simulation step         Convergence     Electron number  ETRS Iterations
 RTBSE|            1402     0.77885127E-007     0.10000000E+002                6
 RTBSE| Simulation step         Convergence     Electron number  ETRS Iterations
 RTBSE|            1403     0.85741808E-007     0.10000000E+002                6
 RTBSE| Simulation step         Convergence     Electron number  ETRS Iterations
 RTBSE|            1404     0.94217580E-007     0.10000000E+002                6
 RTBSE| Simulation step         Convergence     Electron number  ETRS Iterations
 RTBSE|            1405     0.19568872E-007     0.10000000E+002                7
 RTBSE| Simulation step         Convergence     Electron number  ETRS Iterations
 RTBSE|            1406     0.20715109E-007     0.10000000E+002                7
 RTBSE| Simulation step         Convergence     Electron number  ETRS Iterations
 RTBSE|            1407     0.20980821E-007     0.10000000E+002                7
 RTBSE| Simulation step         Convergence     Electron number  ETRS Iterations
 RTBSE|            1408     0.20196776E-007     0.10000000E+002                7
 RTBSE| Simulation step         Convergence     Electron number  ETRS Iterations
 RTBSE|            1409     0.18328819E-007     0.10000000E+002                7
 RTBSE| Simulation step         Convergence     Electron number  ETRS Iterations
 RTBSE|            1410     0.15517531E-007     0.10000000E+002                7
 RTBSE| Simulation step         Convergence     Electron number  ETRS Iterations
 RTBSE|            1411     0.94641256E-007     0.10000000E+002                6
 RTBSE| Simulation step         Convergence     Electron number  ETRS Iterations
 RTBSE|            1412     0.76210030E-007     0.10000000E+002                6
 RTBSE| Simulation step         Convergence     Electron number  ETRS Iterations
 RTBSE|            1413     0.54807298E-007     0.10000000E+002                6
 RTBSE| Simulation step         Convergence     Electron number  ETRS Iterations
 RTBSE|            1414     0.31960184E-007     0.10000000E+002                6
 RTBSE| Simulation step         Convergence     Electron number  ETRS Iterations
 RTBSE|            1415     0.37543575E-007     0.10000000E+002                6
 RTBSE| Simulation step         Convergence     Electron number  ETRS Iterations
 RTBSE|            1416     0.53513477E-007     0.10000000E+002                6
 RTBSE| Simulation step         Convergence     Electron number  ETRS Iterations
 RTBSE|            1417     0.66104371E-007     0.10000000E+002                6
 RTBSE| Simulation step         Convergence     Electron number  ETRS Iterations
 RTBSE|            1418     0.74146494E-007     0.10000000E+002                6
 RTBSE| Simulation step         Convergence     Electron number  ETRS Iterations
 RTBSE|            1419     0.77520351E-007     0.10000000E+002                6
 RTBSE| Simulation step         Convergence     Electron number  ETRS Iterations
 RTBSE|            1420     0.76721838E-007     0.10000000E+002                6
 RTBSE| Simulation step         Convergence     Electron number  ETRS Iterations
 RTBSE|            1421     0.72771167E-007     0.10000000E+002                6
 RTBSE| Simulation step         Convergence     Electron number  ETRS Iterations
 RTBSE|            1422     0.66948266E-007     0.10000000E+002                6
 RTBSE| Simulation step         Convergence     Electron number  ETRS Iterations
 RTBSE|            1423     0.60686475E-007     0.10000000E+002                6
 RTBSE| Simulation step         Convergence     Electron number  ETRS Iterations
 RTBSE|            1424     0.55356506E-007     0.10000000E+002                6
 RTBSE| Simulation step         Convergence     Electron number  ETRS Iterations
 RTBSE|            1425     0.52022304E-007     0.10000000E+002                6
 RTBSE| Simulation step         Convergence     Electron number  ETRS Iterations
 RTBSE|            1426     0.51468686E-007     0.10000000E+002                6
 RTBSE| Simulation step         Convergence     Electron number  ETRS Iterations
 RTBSE|            1427     0.53805270E-007     0.10000000E+002                6
 RTBSE| Simulation step         Convergence     Electron number  ETRS Iterations
 RTBSE|            1428     0.58749292E-007     0.10000000E+002                6
 RTBSE| Simulation step         Convergence     Electron number  ETRS Iterations
 RTBSE|            1429     0.65464434E-007     0.10000000E+002                6
 RTBSE| Simulation step         Convergence     Electron number  ETRS Iterations
 RTBSE|            1430     0.72770155E-007     0.10000000E+002                6
 RTBSE| Simulation step         Convergence     Electron number  ETRS Iterations
 RTBSE|            1431     0.81171105E-007     0.10000000E+002                6
 RTBSE| Simulation step         Convergence     Electron number  ETRS Iterations
 RTBSE|            1432     0.90804017E-007     0.10000000E+002                6
 RTBSE| Simulation step         Convergence     Electron number  ETRS Iterations
 RTBSE|            1433     0.98113516E-007     0.10000000E+002                6
 RTBSE| Simulation step         Convergence     Electron number  ETRS Iterations
 RTBSE|            1434     0.15048673E-007     0.10000000E+002                7
 RTBSE| Simulation step         Convergence     Electron number  ETRS Iterations
 RTBSE|            1435     0.99632159E-007     0.10000000E+002                6
 RTBSE| Simulation step         Convergence     Electron number  ETRS Iterations
 RTBSE|            1436     0.91704117E-007     0.10000000E+002                6
 RTBSE| Simulation step         Convergence     Electron number  ETRS Iterations
 RTBSE|            1437     0.77574928E-007     0.10000000E+002                6
 RTBSE| Simulation step         Convergence     Electron number  ETRS Iterations
 RTBSE|            1438     0.57845045E-007     0.10000000E+002                6
 RTBSE| Simulation step         Convergence     Electron number  ETRS Iterations
 RTBSE|            1439     0.33890628E-007     0.10000000E+002                6
 RTBSE| Simulation step         Convergence     Electron number  ETRS Iterations
 RTBSE|            1440     0.43859565E-007     0.10000000E+002                6
 RTBSE| Simulation step         Convergence     Electron number  ETRS Iterations
 RTBSE|            1441     0.63879245E-007     0.10000000E+002                6
 RTBSE| Simulation step         Convergence     Electron number  ETRS Iterations
 RTBSE|            1442     0.81295623E-007     0.10000000E+002                6
 RTBSE| Simulation step         Convergence     Electron number  ETRS Iterations
 RTBSE|            1443     0.93933833E-007     0.10000000E+002                6
 RTBSE| Simulation step         Convergence     Electron number  ETRS Iterations
 RTBSE|            1444     0.18613530E-007     0.10000000E+002                7
 RTBSE| Simulation step         Convergence     Electron number  ETRS Iterations
 RTBSE|            1445     0.18862177E-007     0.10000000E+002                7
 RTBSE| Simulation step         Convergence     Electron number  ETRS Iterations
 RTBSE|            1446     0.98046951E-007     0.10000000E+002                6
 RTBSE| Simulation step         Convergence     Electron number  ETRS Iterations
 RTBSE|            1447     0.90909696E-007     0.10000000E+002                6
 RTBSE| Simulation step         Convergence     Electron number  ETRS Iterations
 RTBSE|            1448     0.82522678E-007     0.10000000E+002                6
 RTBSE| Simulation step         Convergence     Electron number  ETRS Iterations
 RTBSE|            1449     0.75028461E-007     0.10000000E+002                6
 RTBSE| Simulation step         Convergence     Electron number  ETRS Iterations
 RTBSE|            1450     0.70206820E-007     0.10000000E+002                6
 RTBSE| Simulation step         Convergence     Electron number  ETRS Iterations
 RTBSE|            1451     0.69316128E-007     0.10000000E+002                6
 RTBSE| Simulation step         Convergence     Electron number  ETRS Iterations
 RTBSE|            1452     0.72671849E-007     0.10000000E+002                6
 RTBSE| Simulation step         Convergence     Electron number  ETRS Iterations
 RTBSE|            1453     0.79847507E-007     0.10000000E+002                6
 RTBSE| Simulation step         Convergence     Electron number  ETRS Iterations
 RTBSE|            1454     0.89473127E-007     0.10000000E+002                6
 RTBSE| Simulation step         Convergence     Electron number  ETRS Iterations
 RTBSE|            1455     0.99678798E-007     0.10000000E+002                6
 RTBSE| Simulation step         Convergence     Electron number  ETRS Iterations
 RTBSE|            1456     0.20841150E-007     0.10000000E+002                7
 RTBSE| Simulation step         Convergence     Electron number  ETRS Iterations
 RTBSE|            1457     0.22231872E-007     0.10000000E+002                7
 RTBSE| Simulation step         Convergence     Electron number  ETRS Iterations
 RTBSE|            1458     0.22659486E-007     0.10000000E+002                7
 RTBSE| Simulation step         Convergence     Electron number  ETRS Iterations
 RTBSE|            1459     0.21931417E-007     0.10000000E+002                7
 RTBSE| Simulation step         Convergence     Electron number  ETRS Iterations
 RTBSE|            1460     0.20001360E-007     0.10000000E+002                7
 RTBSE| Simulation step         Convergence     Electron number  ETRS Iterations
 RTBSE|            1461     0.16970897E-007     0.10000000E+002                7
 RTBSE| Simulation step         Convergence     Electron number  ETRS Iterations
 RTBSE|            1462     0.13296977E-007     0.10000000E+002                7
 RTBSE| Simulation step         Convergence     Electron number  ETRS Iterations
 RTBSE|            1463     0.82981081E-007     0.10000000E+002                6
 RTBSE| Simulation step         Convergence     Electron number  ETRS Iterations
 RTBSE|            1464     0.60166532E-007     0.10000000E+002                6
 RTBSE| Simulation step         Convergence     Electron number  ETRS Iterations
 RTBSE|            1465     0.35770770E-007     0.10000000E+002                6
 RTBSE| Simulation step         Convergence     Electron number  ETRS Iterations
 RTBSE|            1466     0.36978660E-007     0.10000000E+002                6
 RTBSE| Simulation step         Convergence     Electron number  ETRS Iterations
 RTBSE|            1467     0.53606022E-007     0.10000000E+002                6
 RTBSE| Simulation step         Convergence     Electron number  ETRS Iterations
 RTBSE|            1468     0.66706859E-007     0.10000000E+002                6
 RTBSE| Simulation step         Convergence     Electron number  ETRS Iterations
 RTBSE|            1469     0.74928807E-007     0.10000000E+002                6
 RTBSE| Simulation step         Convergence     Electron number  ETRS Iterations
 RTBSE|            1470     0.78132214E-007     0.10000000E+002                6
 RTBSE| Simulation step         Convergence     Electron number  ETRS Iterations
 RTBSE|            1471     0.76855410E-007     0.10000000E+002                6
 RTBSE| Simulation step         Convergence     Electron number  ETRS Iterations
 RTBSE|            1472     0.72118462E-007     0.10000000E+002                6
 RTBSE| Simulation step         Convergence     Electron number  ETRS Iterations
 RTBSE|            1473     0.65337099E-007     0.10000000E+002                6
 RTBSE| Simulation step         Convergence     Electron number  ETRS Iterations
 RTBSE|            1474     0.58128567E-007     0.10000000E+002                6
 RTBSE| Simulation step         Convergence     Electron number  ETRS Iterations
 RTBSE|            1475     0.51986709E-007     0.10000000E+002                6
 RTBSE| Simulation step         Convergence     Electron number  ETRS Iterations
 RTBSE|            1476     0.48104889E-007     0.10000000E+002                6
 RTBSE| Simulation step         Convergence     Electron number  ETRS Iterations
 RTBSE|            1477     0.47293089E-007     0.10000000E+002                6
 RTBSE| Simulation step         Convergence     Electron number  ETRS Iterations
 RTBSE|            1478     0.49776498E-007     0.10000000E+002                6
 RTBSE| Simulation step         Convergence     Electron number  ETRS Iterations
 RTBSE|            1479     0.55221826E-007     0.10000000E+002                6
 RTBSE| Simulation step         Convergence     Electron number  ETRS Iterations
 RTBSE|            1480     0.62775127E-007     0.10000000E+002                6
 RTBSE| Simulation step         Convergence     Electron number  ETRS Iterations
 RTBSE|            1481     0.71234401E-007     0.10000000E+002                6
 RTBSE| Simulation step         Convergence     Electron number  ETRS Iterations
 RTBSE|            1482     0.79090683E-007     0.10000000E+002                6
 RTBSE| Simulation step         Convergence     Electron number  ETRS Iterations
 RTBSE|            1483     0.88929875E-007     0.10000000E+002                6
 RTBSE| Simulation step         Convergence     Electron number  ETRS Iterations
 RTBSE|            1484     0.97678137E-007     0.10000000E+002                6
 RTBSE| Simulation step         Convergence     Electron number  ETRS Iterations
 RTBSE|            1485     0.15673585E-007     0.10000000E+002                7
 RTBSE| Simulation step         Convergence     Electron number  ETRS Iterations
 RTBSE|            1486     0.14449420E-007     0.10000000E+002                7
 RTBSE| Simulation step         Convergence     Electron number  ETRS Iterations
 RTBSE|            1487     0.95713893E-007     0.10000000E+002                6
 RTBSE| Simulation step         Convergence     Electron number  ETRS Iterations
 RTBSE|            1488     0.82798255E-007     0.10000000E+002                6
 RTBSE| Simulation step         Convergence     Electron number  ETRS Iterations
 RTBSE|            1489     0.64088914E-007     0.10000000E+002                6
 RTBSE| Simulation step         Convergence     Electron number  ETRS Iterations
 RTBSE|            1490     0.40939137E-007     0.10000000E+002                6
 RTBSE| Simulation step         Convergence     Electron number  ETRS Iterations
 RTBSE|            1491     0.37490774E-007     0.10000000E+002                6
 RTBSE| Simulation step         Convergence     Electron number  ETRS Iterations
 RTBSE|            1492     0.56904505E-007     0.10000000E+002                6
 RTBSE| Simulation step         Convergence     Electron number  ETRS Iterations
 RTBSE|            1493     0.74356051E-007     0.10000000E+002                6
 RTBSE| Simulation step         Convergence     Electron number  ETRS Iterations
 RTBSE|            1494     0.87255120E-007     0.10000000E+002                6
 RTBSE| Simulation step         Convergence     Electron number  ETRS Iterations
 RTBSE|            1495     0.94531815E-007     0.10000000E+002                6
 RTBSE| Simulation step         Convergence     Electron number  ETRS Iterations
 RTBSE|            1496     0.96102816E-007     0.10000000E+002                6
 RTBSE| Simulation step         Convergence     Electron number  ETRS Iterations
 RTBSE|            1497     0.92927734E-007     0.10000000E+002                6
 RTBSE| Simulation step         Convergence     Electron number  ETRS Iterations
 RTBSE|            1498     0.86566460E-007     0.10000000E+002                6
 RTBSE| Simulation step         Convergence     Electron number  ETRS Iterations
 RTBSE|            1499     0.78998962E-007     0.10000000E+002                6
 RTBSE| Simulation step         Convergence     Electron number  ETRS Iterations
 RTBSE|            1500     0.72403993E-007     0.10000000E+002                6
 RTBSE| Simulation step         Convergence     Electron number  ETRS Iterations
 RTBSE|            1501     0.68628027E-007     0.10000000E+002                6
 RTBSE| Simulation step         Convergence     Electron number  ETRS Iterations
 RTBSE|            1502     0.68965929E-007     0.10000000E+002                6
 RTBSE| Simulation step         Convergence     Electron number  ETRS Iterations
 RTBSE|            1503     0.73717368E-007     0.10000000E+002                6
 RTBSE| Simulation step         Convergence     Electron number  ETRS Iterations
 RTBSE|            1504     0.82347858E-007     0.10000000E+002                6
 RTBSE| Simulation step         Convergence     Electron number  ETRS Iterations
 RTBSE|            1505     0.93406510E-007     0.10000000E+002                6
 RTBSE| Simulation step         Convergence     Electron number  ETRS Iterations
 RTBSE|            1506     0.19756807E-007     0.10000000E+002                7
 RTBSE| Simulation step         Convergence     Electron number  ETRS Iterations
 RTBSE|            1507     0.21976780E-007     0.10000000E+002                7
 RTBSE| Simulation step         Convergence     Electron number  ETRS Iterations
 RTBSE|            1508     0.23526000E-007     0.10000000E+002                7
 RTBSE| Simulation step         Convergence     Electron number  ETRS Iterations
 RTBSE|            1509     0.24020334E-007     0.10000000E+002                7
 RTBSE| Simulation step         Convergence     Electron number  ETRS Iterations
 RTBSE|            1510     0.23275775E-007     0.10000000E+002                7
 RTBSE| Simulation step         Convergence     Electron number  ETRS Iterations
 RTBSE|            1511     0.21225932E-007     0.10000000E+002                7
 RTBSE| Simulation step         Convergence     Electron number  ETRS Iterations
 RTBSE|            1512     0.18026266E-007     0.10000000E+002                7
 RTBSE| Simulation step         Convergence     Electron number  ETRS Iterations
 RTBSE|            1513     0.13937727E-007     0.10000000E+002                7
 RTBSE| Simulation step         Convergence     Electron number  ETRS Iterations
 RTBSE|            1514     0.86848511E-007     0.10000000E+002                6
 RTBSE| Simulation step         Convergence     Electron number  ETRS Iterations
 RTBSE|            1515     0.62881166E-007     0.10000000E+002                6
 RTBSE| Simulation step         Convergence     Electron number  ETRS Iterations
 RTBSE|            1516     0.37482105E-007     0.10000000E+002                6
 RTBSE| Simulation step         Convergence     Electron number  ETRS Iterations
 RTBSE|            1517     0.35995850E-007     0.10000000E+002                6
 RTBSE| Simulation step         Convergence     Electron number  ETRS Iterations
 RTBSE|            1518     0.52572958E-007     0.10000000E+002                6
 RTBSE| Simulation step         Convergence     Electron number  ETRS Iterations
 RTBSE|            1519     0.65419689E-007     0.10000000E+002                6
 RTBSE| Simulation step         Convergence     Electron number  ETRS Iterations
 RTBSE|            1520     0.73115479E-007     0.10000000E+002                6
 RTBSE| Simulation step         Convergence     Electron number  ETRS Iterations
 RTBSE|            1521     0.75554303E-007     0.10000000E+002                6
 RTBSE| Simulation step         Convergence     Electron number  ETRS Iterations
 RTBSE|            1522     0.73386116E-007     0.10000000E+002                6
 RTBSE| Simulation step         Convergence     Electron number  ETRS Iterations
 RTBSE|            1523     0.67766259E-007     0.10000000E+002                6
 RTBSE| Simulation step         Convergence     Electron number  ETRS Iterations
 RTBSE|            1524     0.60282698E-007     0.10000000E+002                6
 RTBSE| Simulation step         Convergence     Electron number  ETRS Iterations
 RTBSE|            1525     0.52614494E-007     0.10000000E+002                6
 RTBSE| Simulation step         Convergence     Electron number  ETRS Iterations
 RTBSE|            1526     0.46352143E-007     0.10000000E+002                6
 RTBSE| Simulation step         Convergence     Electron number  ETRS Iterations
 RTBSE|            1527     0.42757197E-007     0.10000000E+002                6
 RTBSE| Simulation step         Convergence     Electron number  ETRS Iterations
 RTBSE|            1528     0.42630713E-007     0.10000000E+002                6
 RTBSE| Simulation step         Convergence     Electron number  ETRS Iterations
 RTBSE|            1529     0.46175306E-007     0.10000000E+002                6
 RTBSE| Simulation step         Convergence     Electron number  ETRS Iterations
 RTBSE|            1530     0.52982403E-007     0.10000000E+002                6
 RTBSE| Simulation step         Convergence     Electron number  ETRS Iterations
 RTBSE|            1531     0.62094867E-007     0.10000000E+002                6
 RTBSE| Simulation step         Convergence     Electron number  ETRS Iterations
 RTBSE|            1532     0.72155952E-007     0.10000000E+002                6
 RTBSE| Simulation step         Convergence     Electron number  ETRS Iterations
 RTBSE|            1533     0.81540997E-007     0.10000000E+002                6
 RTBSE| Simulation step         Convergence     Electron number  ETRS Iterations
 RTBSE|            1534     0.89843456E-007     0.10000000E+002                6
 RTBSE| Simulation step         Convergence     Electron number  ETRS Iterations
 RTBSE|            1535     0.99859684E-007     0.10000000E+002                6
 RTBSE| Simulation step         Convergence     Electron number  ETRS Iterations
 RTBSE|            1536     0.16715889E-007     0.10000000E+002                7
 RTBSE| Simulation step         Convergence     Electron number  ETRS Iterations
 RTBSE|            1537     0.15679615E-007     0.10000000E+002                7
 RTBSE| Simulation step         Convergence     Electron number  ETRS Iterations
 RTBSE|            1538     0.13518678E-007     0.10000000E+002                7
 RTBSE| Simulation step         Convergence     Electron number  ETRS Iterations
 RTBSE|            1539     0.89902807E-007     0.10000000E+002                6
 RTBSE| Simulation step         Convergence     Electron number  ETRS Iterations
 RTBSE|            1540     0.71841060E-007     0.10000000E+002                6
 RTBSE| Simulation step         Convergence     Electron number  ETRS Iterations
 RTBSE|            1541     0.49067427E-007     0.10000000E+002                6
 RTBSE| Simulation step         Convergence     Electron number  ETRS Iterations
 RTBSE|            1542     0.32018521E-007     0.10000000E+002                6
 RTBSE| Simulation step         Convergence     Electron number  ETRS Iterations
 RTBSE|            1543     0.50765702E-007     0.10000000E+002                6
 RTBSE| Simulation step         Convergence     Electron number  ETRS Iterations
 RTBSE|            1544     0.68497808E-007     0.10000000E+002                6
 RTBSE| Simulation step         Convergence     Electron number  ETRS Iterations
 RTBSE|            1545     0.82063981E-007     0.10000000E+002                6
 RTBSE| Simulation step         Convergence     Electron number  ETRS Iterations
 RTBSE|            1546     0.90163209E-007     0.10000000E+002                6
 RTBSE| Simulation step         Convergence     Electron number  ETRS Iterations
 RTBSE|            1547     0.92624383E-007     0.10000000E+002                6
 RTBSE| Simulation step         Convergence     Electron number  ETRS Iterations
 RTBSE|            1548     0.90249577E-007     0.10000000E+002                6
 RTBSE| Simulation step         Convergence     Electron number  ETRS Iterations
 RTBSE|            1549     0.84588013E-007     0.10000000E+002                6
 RTBSE| Simulation step         Convergence     Electron number  ETRS Iterations
 RTBSE|            1550     0.77698811E-007     0.10000000E+002                6
 RTBSE| Simulation step         Convergence     Electron number  ETRS Iterations
 RTBSE|            1551     0.71766634E-007     0.10000000E+002                6
 RTBSE| Simulation step         Convergence     Electron number  ETRS Iterations
 RTBSE|            1552     0.68664248E-007     0.10000000E+002                6
 RTBSE| Simulation step         Convergence     Electron number  ETRS Iterations
 RTBSE|            1553     0.69626738E-007     0.10000000E+002                6
 RTBSE| Simulation step         Convergence     Electron number  ETRS Iterations
 RTBSE|            1554     0.75073580E-007     0.10000000E+002                6
 RTBSE| Simulation step         Convergence     Electron number  ETRS Iterations
 RTBSE|            1555     0.84449058E-007     0.10000000E+002                6
 RTBSE| Simulation step         Convergence     Electron number  ETRS Iterations
 RTBSE|            1556     0.96245588E-007     0.10000000E+002                6
 RTBSE| Simulation step         Convergence     Electron number  ETRS Iterations
 RTBSE|            1557     0.20340840E-007     0.10000000E+002                7
 RTBSE| Simulation step         Convergence     Electron number  ETRS Iterations
 RTBSE|            1558     0.22676878E-007     0.10000000E+002                7
 RTBSE| Simulation step         Convergence     Electron number  ETRS Iterations
 RTBSE|            1559     0.24290771E-007     0.10000000E+002                7
 RTBSE| Simulation step         Convergence     Electron number  ETRS Iterations
 RTBSE|            1560     0.24825536E-007     0.10000000E+002                7
 RTBSE| Simulation step         Convergence     Electron number  ETRS Iterations
 RTBSE|            1561     0.24077858E-007     0.10000000E+002                7
 RTBSE| Simulation step         Convergence     Electron number  ETRS Iterations
 RTBSE|            1562     0.22007212E-007     0.10000000E+002                7
 RTBSE| Simulation step         Convergence     Electron number  ETRS Iterations
 RTBSE|            1563     0.18753777E-007     0.10000000E+002                7
 RTBSE| Simulation step         Convergence     Electron number  ETRS Iterations
 RTBSE|            1564     0.14586999E-007     0.10000000E+002                7
 RTBSE| Simulation step         Convergence     Electron number  ETRS Iterations
 RTBSE|            1565     0.89666728E-007     0.10000000E+002                6
 RTBSE| Simulation step         Convergence     Electron number  ETRS Iterations
 RTBSE|            1566     0.65534835E-007     0.10000000E+002                6
 RTBSE| Simulation step         Convergence     Electron number  ETRS Iterations
 RTBSE|            1567     0.40107749E-007     0.10000000E+002                6
 RTBSE| Simulation step         Convergence     Electron number  ETRS Iterations
 RTBSE|            1568     0.32834779E-007     0.10000000E+002                6
 RTBSE| Simulation step         Convergence     Electron number  ETRS Iterations
 RTBSE|            1569     0.48779519E-007     0.10000000E+002                6
 RTBSE| Simulation step         Convergence     Electron number  ETRS Iterations
 RTBSE|            1570     0.61159779E-007     0.10000000E+002                6
 RTBSE| Simulation step         Convergence     Electron number  ETRS Iterations
 RTBSE|            1571     0.68430791E-007     0.10000000E+002                6
 RTBSE| Simulation step         Convergence     Electron number  ETRS Iterations
 RTBSE|            1572     0.70526237E-007     0.10000000E+002                6
 RTBSE| Simulation step         Convergence     Electron number  ETRS Iterations
 RTBSE|            1573     0.68136771E-007     0.10000000E+002                6
 RTBSE| Simulation step         Convergence     Electron number  ETRS Iterations
 RTBSE|            1574     0.62472078E-007     0.10000000E+002                6
 RTBSE| Simulation step         Convergence     Electron number  ETRS Iterations
 RTBSE|            1575     0.55108956E-007     0.10000000E+002                6
 RTBSE| Simulation step         Convergence     Electron number  ETRS Iterations
 RTBSE|            1576     0.47848277E-007     0.10000000E+002                6
 RTBSE| Simulation step         Convergence     Electron number  ETRS Iterations
 RTBSE|            1577     0.42246691E-007     0.10000000E+002                6
 RTBSE| Simulation step         Convergence     Electron number  ETRS Iterations
 RTBSE|            1578     0.39622367E-007     0.10000000E+002                6
 RTBSE| Simulation step         Convergence     Electron number  ETRS Iterations
 RTBSE|            1579     0.40646856E-007     0.10000000E+002                6
 RTBSE| Simulation step         Convergence     Electron number  ETRS Iterations
 RTBSE|            1580     0.45424396E-007     0.10000000E+002                6
 RTBSE| Simulation step         Convergence     Electron number  ETRS Iterations
 RTBSE|            1581     0.53473881E-007     0.10000000E+002                6
 RTBSE| Simulation step         Convergence     Electron number  ETRS Iterations
 RTBSE|            1582     0.63748951E-007     0.10000000E+002                6
 RTBSE| Simulation step         Convergence     Electron number  ETRS Iterations
 RTBSE|            1583     0.74950247E-007     0.10000000E+002                6
 RTBSE| Simulation step         Convergence     Electron number  ETRS Iterations
 RTBSE|            1584     0.85415740E-007     0.10000000E+002                6
 RTBSE| Simulation step         Convergence     Electron number  ETRS Iterations
 RTBSE|            1585     0.93454845E-007     0.10000000E+002                6
 RTBSE| Simulation step         Convergence     Electron number  ETRS Iterations
 RTBSE|            1586     0.17615805E-007     0.10000000E+002                7
 RTBSE| Simulation step         Convergence     Electron number  ETRS Iterations
 RTBSE|            1587     0.17729531E-007     0.10000000E+002                7
 RTBSE| Simulation step         Convergence     Electron number  ETRS Iterations
 RTBSE|            1588     0.16775345E-007     0.10000000E+002                7
 RTBSE| Simulation step         Convergence     Electron number  ETRS Iterations
 RTBSE|            1589     0.14671772E-007     0.10000000E+002                7
 RTBSE| Simulation step         Convergence     Electron number  ETRS Iterations
 RTBSE|            1590     0.95887271E-007     0.10000000E+002                6
 RTBSE| Simulation step         Convergence     Electron number  ETRS Iterations
 RTBSE|            1591     0.78054289E-007     0.10000000E+002                6
 RTBSE| Simulation step         Convergence     Electron number  ETRS Iterations
 RTBSE|            1592     0.55251692E-007     0.10000000E+002                6
 RTBSE| Simulation step         Convergence     Electron number  ETRS Iterations
 RTBSE|            1593     0.29446187E-007     0.10000000E+002                6
 RTBSE| Simulation step         Convergence     Electron number  ETRS Iterations
 RTBSE|            1594     0.46726633E-007     0.10000000E+002                6
 RTBSE| Simulation step         Convergence     Electron number  ETRS Iterations
 RTBSE|            1595     0.64714256E-007     0.10000000E+002                6
 RTBSE| Simulation step         Convergence     Electron number  ETRS Iterations
 RTBSE|            1596     0.78768178E-007     0.10000000E+002                6
 RTBSE| Simulation step         Convergence     Electron number  ETRS Iterations
 RTBSE|            1597     0.87402792E-007     0.10000000E+002                6
 RTBSE| Simulation step         Convergence     Electron number  ETRS Iterations
 RTBSE|            1598     0.90382215E-007     0.10000000E+002                6
 RTBSE| Simulation step         Convergence     Electron number  ETRS Iterations
 RTBSE|            1599     0.88460813E-007     0.10000000E+002                6
 RTBSE| Simulation step         Convergence     Electron number  ETRS Iterations
 RTBSE|            1600     0.83174648E-007     0.10000000E+002                6
 RTBSE| Simulation step         Convergence     Electron number  ETRS Iterations
 RTBSE|            1601     0.76605586E-007     0.10000000E+002                6
 RTBSE| Simulation step         Convergence     Electron number  ETRS Iterations
 RTBSE|            1602     0.70831549E-007     0.10000000E+002                6
 RTBSE| Simulation step         Convergence     Electron number  ETRS Iterations
 RTBSE|            1603     0.67867534E-007     0.10000000E+002                6
 RTBSE| Simulation step         Convergence     Electron number  ETRS Iterations
 RTBSE|            1604     0.68939723E-007     0.10000000E+002                6
 RTBSE| Simulation step         Convergence     Electron number  ETRS Iterations
 RTBSE|            1605     0.74557147E-007     0.10000000E+002                6
 RTBSE| Simulation step         Convergence     Electron number  ETRS Iterations
 RTBSE|            1606     0.84145275E-007     0.10000000E+002                6
 RTBSE| Simulation step         Convergence     Electron number  ETRS Iterations
 RTBSE|            1607     0.96275566E-007     0.10000000E+002                6
 RTBSE| Simulation step         Convergence     Electron number  ETRS Iterations
 RTBSE|            1608     0.20315476E-007     0.10000000E+002                7
 RTBSE| Simulation step         Convergence     Electron number  ETRS Iterations
 RTBSE|            1609     0.22710420E-007     0.10000000E+002                7
 RTBSE| Simulation step         Convergence     Electron number  ETRS Iterations
 RTBSE|            1610     0.24444204E-007     0.10000000E+002                7
 RTBSE| Simulation step         Convergence     Electron number  ETRS Iterations
 RTBSE|            1611     0.25098454E-007     0.10000000E+002                7
 RTBSE| Simulation step         Convergence     Electron number  ETRS Iterations
 RTBSE|            1612     0.24477655E-007     0.10000000E+002                7
 RTBSE| Simulation step         Convergence     Electron number  ETRS Iterations
 RTBSE|            1613     0.22545348E-007     0.10000000E+002                7
 RTBSE| Simulation step         Convergence     Electron number  ETRS Iterations
 RTBSE|            1614     0.19419063E-007     0.10000000E+002                7
 RTBSE| Simulation step         Convergence     Electron number  ETRS Iterations
 RTBSE|            1615     0.15380921E-007     0.10000000E+002                7
 RTBSE| Simulation step         Convergence     Electron number  ETRS Iterations
 RTBSE|            1616     0.93213991E-007     0.10000000E+002                6
 RTBSE| Simulation step         Convergence     Electron number  ETRS Iterations
 RTBSE|            1617     0.69833033E-007     0.10000000E+002                6
 RTBSE| Simulation step         Convergence     Electron number  ETRS Iterations
 RTBSE|            1618     0.45074102E-007     0.10000000E+002                6
 RTBSE| Simulation step         Convergence     Electron number  ETRS Iterations
 RTBSE|            1619     0.27667073E-007     0.10000000E+002                6
 RTBSE| Simulation step         Convergence     Electron number  ETRS Iterations
 RTBSE|            1620     0.42613954E-007     0.10000000E+002                6
 RTBSE| Simulation step         Convergence     Electron number  ETRS Iterations
 RTBSE|            1621     0.54779456E-007     0.10000000E+002                6
 RTBSE| Simulation step         Convergence     Electron number  ETRS Iterations
 RTBSE|            1622     0.62170961E-007     0.10000000E+002                6
 RTBSE| Simulation step         Convergence     Electron number  ETRS Iterations
 RTBSE|            1623     0.64576141E-007     0.10000000E+002                6
 RTBSE| Simulation step         Convergence     Electron number  ETRS Iterations
 RTBSE|            1624     0.62704557E-007     0.10000000E+002                6
 RTBSE| Simulation step         Convergence     Electron number  ETRS Iterations
 RTBSE|            1625     0.57694184E-007     0.10000000E+002                6
 RTBSE| Simulation step         Convergence     Electron number  ETRS Iterations
 RTBSE|            1626     0.51156027E-007     0.10000000E+002                6
 RTBSE| Simulation step         Convergence     Electron number  ETRS Iterations
 RTBSE|            1627     0.44788692E-007     0.10000000E+002                6
 RTBSE| Simulation step         Convergence     Electron number  ETRS Iterations
 RTBSE|            1628     0.40168659E-007     0.10000000E+002                6
 RTBSE| Simulation step         Convergence     Electron number  ETRS Iterations
 RTBSE|            1629     0.38509435E-007     0.10000000E+002                6
 RTBSE| Simulation step         Convergence     Electron number  ETRS Iterations
 RTBSE|            1630     0.40451557E-007     0.10000000E+002                6
 RTBSE| Simulation step         Convergence     Electron number  ETRS Iterations
 RTBSE|            1631     0.46108439E-007     0.10000000E+002                6
 RTBSE| Simulation step         Convergence     Electron number  ETRS Iterations
 RTBSE|            1632     0.54930668E-007     0.10000000E+002                6
 RTBSE| Simulation step         Convergence     Electron number  ETRS Iterations
 RTBSE|            1633     0.65958620E-007     0.10000000E+002                6
 RTBSE| Simulation step         Convergence     Electron number  ETRS Iterations
 RTBSE|            1634     0.77804084E-007     0.10000000E+002                6
 RTBSE| Simulation step         Convergence     Electron number  ETRS Iterations
 RTBSE|            1635     0.88815836E-007     0.10000000E+002                6
 RTBSE| Simulation step         Convergence     Electron number  ETRS Iterations
 RTBSE|            1636     0.97390519E-007     0.10000000E+002                6
 RTBSE| Simulation step         Convergence     Electron number  ETRS Iterations
 RTBSE|            1637     0.18306764E-007     0.10000000E+002                7
 RTBSE| Simulation step         Convergence     Electron number  ETRS Iterations
 RTBSE|            1638     0.18497129E-007     0.10000000E+002                7
 RTBSE| Simulation step         Convergence     Electron number  ETRS Iterations
 RTBSE|            1639     0.17619712E-007     0.10000000E+002                7
 RTBSE| Simulation step         Convergence     Electron number  ETRS Iterations
 RTBSE|            1640     0.15555651E-007     0.10000000E+002                7
 RTBSE| Simulation step         Convergence     Electron number  ETRS Iterations
 RTBSE|            1641     0.12695477E-007     0.10000000E+002                7
 RTBSE| Simulation step         Convergence     Electron number  ETRS Iterations
 RTBSE|            1642     0.82460247E-007     0.10000000E+002                6
 RTBSE| Simulation step         Convergence     Electron number  ETRS Iterations
 RTBSE|            1643     0.59773992E-007     0.10000000E+002                6
 RTBSE| Simulation step         Convergence     Electron number  ETRS Iterations
 RTBSE|            1644     0.34019327E-007     0.10000000E+002                6
 RTBSE| Simulation step         Convergence     Electron number  ETRS Iterations
 RTBSE|            1645     0.42893554E-007     0.10000000E+002                6
 RTBSE| Simulation step         Convergence     Electron number  ETRS Iterations
 RTBSE|            1646     0.60704588E-007     0.10000000E+002                6
 RTBSE| Simulation step         Convergence     Electron number  ETRS Iterations
 RTBSE|            1647     0.74877689E-007     0.10000000E+002                6
 RTBSE| Simulation step         Convergence     Electron number  ETRS Iterations
 RTBSE|            1648     0.83782858E-007     0.10000000E+002                6
 RTBSE| Simulation step         Convergence     Electron number  ETRS Iterations
 RTBSE|            1649     0.87025239E-007     0.10000000E+002                6
 RTBSE| Simulation step         Convergence     Electron number  ETRS Iterations
 RTBSE|            1650     0.85386040E-007     0.10000000E+002                6
 RTBSE| Simulation step         Convergence     Electron number  ETRS Iterations
 RTBSE|            1651     0.80327007E-007     0.10000000E+002                6
 RTBSE| Simulation step         Convergence     Electron number  ETRS Iterations
 RTBSE|            1652     0.73863849E-007     0.10000000E+002                6
 RTBSE| Simulation step         Convergence     Electron number  ETRS Iterations
 RTBSE|            1653     0.68210505E-007     0.10000000E+002                6
 RTBSE| Simulation step         Convergence     Electron number  ETRS Iterations
 RTBSE|            1654     0.65315694E-007     0.10000000E+002                6
 RTBSE| Simulation step         Convergence     Electron number  ETRS Iterations
 RTBSE|            1655     0.66513487E-007     0.10000000E+002                6
 RTBSE| Simulation step         Convergence     Electron number  ETRS Iterations
 RTBSE|            1656     0.72311233E-007     0.10000000E+002                6
 RTBSE| Simulation step         Convergence     Electron number  ETRS Iterations
 RTBSE|            1657     0.82214779E-007     0.10000000E+002                6
 RTBSE| Simulation step         Convergence     Electron number  ETRS Iterations
 RTBSE|            1658     0.94949379E-007     0.10000000E+002                6
 RTBSE| Simulation step         Convergence     Electron number  ETRS Iterations
 RTBSE|            1659     0.20098657E-007     0.10000000E+002                7
 RTBSE| Simulation step         Convergence     Electron number  ETRS Iterations
 RTBSE|            1660     0.22707668E-007     0.10000000E+002                7
 RTBSE| Simulation step         Convergence     Electron number  ETRS Iterations
 RTBSE|            1661     0.24675888E-007     0.10000000E+002                7
 RTBSE| Simulation step         Convergence     Electron number  ETRS Iterations
 RTBSE|            1662     0.25597787E-007     0.10000000E+002                7
 RTBSE| Simulation step         Convergence     Electron number  ETRS Iterations
 RTBSE|            1663     0.25244495E-007     0.10000000E+002                7
 RTBSE| Simulation step         Convergence     Electron number  ETRS Iterations
 RTBSE|            1664     0.23549551E-007     0.10000000E+002                7
 RTBSE| Simulation step         Convergence     Electron number  ETRS Iterations
 RTBSE|            1665     0.20637575E-007     0.10000000E+002                7
 RTBSE| Simulation step         Convergence     Electron number  ETRS Iterations
 RTBSE|            1666     0.16733679E-007     0.10000000E+002                7
 RTBSE| Simulation step         Convergence     Electron number  ETRS Iterations
 RTBSE|            1667     0.99930075E-007     0.10000000E+002                6
 RTBSE| Simulation step         Convergence     Electron number  ETRS Iterations
 RTBSE|            1668     0.77092359E-007     0.10000000E+002                6
 RTBSE| Simulation step         Convergence     Electron number  ETRS Iterations
 RTBSE|            1669     0.52608466E-007     0.10000000E+002                6
 RTBSE| Simulation step         Convergence     Electron number  ETRS Iterations
 RTBSE|            1670     0.28382998E-007     0.10000000E+002                6
 RTBSE| Simulation step         Convergence     Electron number  ETRS Iterations
 RTBSE|            1671     0.36444077E-007     0.10000000E+002                6
 RTBSE| Simulation step         Convergence     Electron number  ETRS Iterations
 RTBSE|            1672     0.48842217E-007     0.10000000E+002                6
 RTBSE| Simulation step         Convergence     Electron number  ETRS Iterations
 RTBSE|            1673     0.56873542E-007     0.10000000E+002                6
 RTBSE| Simulation step         Convergence     Electron number  ETRS Iterations
 RTBSE|            1674     0.60093908E-007     0.10000000E+002                6
 RTBSE| Simulation step         Convergence     Electron number  ETRS Iterations
 RTBSE|            1675     0.59101506E-007     0.10000000E+002                6
 RTBSE| Simulation step         Convergence     Electron number  ETRS Iterations
 RTBSE|            1676     0.55016478E-007     0.10000000E+002                6
 RTBSE| Simulation step         Convergence     Electron number  ETRS Iterations
 RTBSE|            1677     0.49389701E-007     0.10000000E+002                6
 RTBSE| Simulation step         Convergence     Electron number  ETRS Iterations
 RTBSE|            1678     0.43866688E-007     0.10000000E+002                6
 RTBSE| Simulation step         Convergence     Electron number  ETRS Iterations
 RTBSE|            1679     0.40001177E-007     0.10000000E+002                6
 RTBSE| Simulation step         Convergence     Electron number  ETRS Iterations
 RTBSE|            1680     0.39068013E-007     0.10000000E+002                6
 RTBSE| Simulation step         Convergence     Electron number  ETRS Iterations
 RTBSE|            1681     0.41611823E-007     0.10000000E+002                6
 RTBSE| Simulation step         Convergence     Electron number  ETRS Iterations
 RTBSE|            1682     0.47745931E-007     0.10000000E+002                6
 RTBSE| Simulation step         Convergence     Electron number  ETRS Iterations
 RTBSE|            1683     0.56941532E-007     0.10000000E+002                6
 RTBSE| Simulation step         Convergence     Electron number  ETRS Iterations
 RTBSE|            1684     0.68210219E-007     0.10000000E+002                6
 RTBSE| Simulation step         Convergence     Electron number  ETRS Iterations
 RTBSE|            1685     0.80244701E-007     0.10000000E+002                6
 RTBSE| Simulation step         Convergence     Electron number  ETRS Iterations
 RTBSE|            1686     0.91429079E-007     0.10000000E+002                6
 RTBSE| Simulation step         Convergence     Electron number  ETRS Iterations
 RTBSE|            1687     0.17635674E-007     0.10000000E+002                7
 RTBSE| Simulation step         Convergence     Electron number  ETRS Iterations
 RTBSE|            1688     0.18742036E-007     0.10000000E+002                7
 RTBSE| Simulation step         Convergence     Electron number  ETRS Iterations
 RTBSE|            1689     0.18967772E-007     0.10000000E+002                7
 RTBSE| Simulation step         Convergence     Electron number  ETRS Iterations
 RTBSE|            1690     0.18100537E-007     0.10000000E+002                7
 RTBSE| Simulation step         Convergence     Electron number  ETRS Iterations
 RTBSE|            1691     0.16088327E-007     0.10000000E+002                7
 RTBSE| Simulation step         Convergence     Electron number  ETRS Iterations
 RTBSE|            1692     0.13008302E-007     0.10000000E+002                7
 RTBSE| Simulation step         Convergence     Electron number  ETRS Iterations
 RTBSE|            1693     0.84973692E-007     0.10000000E+002                6
 RTBSE| Simulation step         Convergence     Electron number  ETRS Iterations
 RTBSE|            1694     0.62719555E-007     0.10000000E+002                6
 RTBSE| Simulation step         Convergence     Electron number  ETRS Iterations
 RTBSE|            1695     0.37390042E-007     0.10000000E+002                6
 RTBSE| Simulation step         Convergence     Electron number  ETRS Iterations
 RTBSE|            1696     0.39078690E-007     0.10000000E+002                6
 RTBSE| Simulation step         Convergence     Electron number  ETRS Iterations
 RTBSE|            1697     0.56387115E-007     0.10000000E+002                6
 RTBSE| Simulation step         Convergence     Electron number  ETRS Iterations
 RTBSE|            1698     0.70342787E-007     0.10000000E+002                6
 RTBSE| Simulation step         Convergence     Electron number  ETRS Iterations
 RTBSE|            1699     0.79219185E-007     0.10000000E+002                6
 RTBSE| Simulation step         Convergence     Electron number  ETRS Iterations
 RTBSE|            1700     0.82573802E-007     0.10000000E+002                6
 RTBSE| Simulation step         Convergence     Electron number  ETRS Iterations
 RTBSE|            1701     0.81100674E-007     0.10000000E+002                6
 RTBSE| Simulation step         Convergence     Electron number  ETRS Iterations
 RTBSE|            1702     0.76236108E-007     0.10000000E+002                6
 RTBSE| Simulation step         Convergence     Electron number  ETRS Iterations
 RTBSE|            1703     0.70013000E-007     0.10000000E+002                6
 RTBSE| Simulation step         Convergence     Electron number  ETRS Iterations
 RTBSE|            1704     0.64575550E-007     0.10000000E+002                6
 RTBSE| Simulation step         Convergence     Electron number  ETRS Iterations
 RTBSE|            1705     0.62005572E-007     0.10000000E+002                6
 RTBSE| Simulation step         Convergence     Electron number  ETRS Iterations
 RTBSE|            1706     0.63646927E-007     0.10000000E+002                6
 RTBSE| Simulation step         Convergence     Electron number  ETRS Iterations
 RTBSE|            1707     0.70029164E-007     0.10000000E+002                6
 RTBSE| Simulation step         Convergence     Electron number  ETRS Iterations
 RTBSE|            1708     0.80823293E-007     0.10000000E+002                6
 RTBSE| Simulation step         Convergence     Electron number  ETRS Iterations
 RTBSE|            1709     0.94631400E-007     0.10000000E+002                6
 RTBSE| Simulation step         Convergence     Electron number  ETRS Iterations
 RTBSE|            1710     0.20161065E-007     0.10000000E+002                7
 RTBSE| Simulation step         Convergence     Electron number  ETRS Iterations
 RTBSE|            1711     0.23040206E-007     0.10000000E+002                7
 RTBSE| Simulation step         Convergence     Electron number  ETRS Iterations
 RTBSE|            1712     0.25284968E-007     0.10000000E+002                7
 RTBSE| Simulation step         Convergence     Electron number  ETRS Iterations
 RTBSE|            1713     0.26485355E-007     0.10000000E+002                7
 RTBSE| Simulation step         Convergence     Electron number  ETRS Iterations
 RTBSE|            1714     0.26363033E-007     0.10000000E+002                7
 RTBSE| Simulation step         Convergence     Electron number  ETRS Iterations
 RTBSE|            1715     0.24844892E-007     0.10000000E+002                7
 RTBSE| Simulation step         Convergence     Electron number  ETRS Iterations
 RTBSE|            1716     0.21998621E-007     0.10000000E+002                7
 RTBSE| Simulation step         Convergence     Electron number  ETRS Iterations
 RTBSE|            1717     0.18104479E-007     0.10000000E+002                7
 RTBSE| Simulation step         Convergence     Electron number  ETRS Iterations
 RTBSE|            1718     0.13508195E-007     0.10000000E+002                7
 RTBSE| Simulation step         Convergence     Electron number  ETRS Iterations
 RTBSE|            1719     0.83989390E-007     0.10000000E+002                6
 RTBSE| Simulation step         Convergence     Electron number  ETRS Iterations
 RTBSE|            1720     0.59134637E-007     0.10000000E+002                6
 RTBSE| Simulation step         Convergence     Electron number  ETRS Iterations
 RTBSE|            1721     0.34392652E-007     0.10000000E+002                6
 RTBSE| Simulation step         Convergence     Electron number  ETRS Iterations
 RTBSE|            1722     0.32613339E-007     0.10000000E+002                6
 RTBSE| Simulation step         Convergence     Electron number  ETRS Iterations
 RTBSE|            1723     0.45221339E-007     0.10000000E+002                6
 RTBSE| Simulation step         Convergence     Electron number  ETRS Iterations
 RTBSE|            1724     0.53740892E-007     0.10000000E+002                6
 RTBSE| Simulation step         Convergence     Electron number  ETRS Iterations
 RTBSE|            1725     0.57517540E-007     0.10000000E+002                6
 RTBSE| Simulation step         Convergence     Electron number  ETRS Iterations
 RTBSE|            1726     0.57015382E-007     0.10000000E+002                6
 RTBSE| Simulation step         Convergence     Electron number  ETRS Iterations
 RTBSE|            1727     0.53400848E-007     0.10000000E+002                6
 RTBSE| Simulation step         Convergence     Electron number  ETRS Iterations
 RTBSE|            1728     0.48208699E-007     0.10000000E+002                6
 RTBSE| Simulation step         Convergence     Electron number  ETRS Iterations
 RTBSE|            1729     0.43147965E-007     0.10000000E+002                6
 RTBSE| Simulation step         Convergence     Electron number  ETRS Iterations
 RTBSE|            1730     0.39705905E-007     0.10000000E+002                6
 RTBSE| Simulation step         Convergence     Electron number  ETRS Iterations
 RTBSE|            1731     0.39073216E-007     0.10000000E+002                6
 RTBSE| Simulation step         Convergence     Electron number  ETRS Iterations
 RTBSE|            1732     0.41933848E-007     0.10000000E+002                6
 RTBSE| Simulation step         Convergence     Electron number  ETRS Iterations
 RTBSE|            1733     0.48297156E-007     0.10000000E+002                6
 RTBSE| Simulation step         Convergence     Electron number  ETRS Iterations
 RTBSE|            1734     0.57646307E-007     0.10000000E+002                6
 RTBSE| Simulation step         Convergence     Electron number  ETRS Iterations
 RTBSE|            1735     0.69032273E-007     0.10000000E+002                6
 RTBSE| Simulation step         Convergence     Electron number  ETRS Iterations
 RTBSE|            1736     0.81131595E-007     0.10000000E+002                6
 RTBSE| Simulation step         Convergence     Electron number  ETRS Iterations
 RTBSE|            1737     0.92327221E-007     0.10000000E+002                6
 RTBSE| Simulation step         Convergence     Electron number  ETRS Iterations
 RTBSE|            1738     0.17750625E-007     0.10000000E+002                7
 RTBSE| Simulation step         Convergence     Electron number  ETRS Iterations
 RTBSE|            1739     0.18880580E-007     0.10000000E+002                7
 RTBSE| Simulation step         Convergence     Electron number  ETRS Iterations
 RTBSE|            1740     0.19109617E-007     0.10000000E+002                7
 RTBSE| Simulation step         Convergence     Electron number  ETRS Iterations
 RTBSE|            1741     0.18296859E-007     0.10000000E+002                7
 RTBSE| Simulation step         Convergence     Electron number  ETRS Iterations
 RTBSE|            1742     0.16344951E-007     0.10000000E+002                7
 RTBSE| Simulation step         Convergence     Electron number  ETRS Iterations
 RTBSE|            1743     0.13303524E-007     0.10000000E+002                7
 RTBSE| Simulation step         Convergence     Electron number  ETRS Iterations
 RTBSE|            1744     0.86078372E-007     0.10000000E+002                6
 RTBSE| Simulation step         Convergence     Electron number  ETRS Iterations
 RTBSE|            1745     0.64495786E-007     0.10000000E+002                6
 RTBSE| Simulation step         Convergence     Electron number  ETRS Iterations
 RTBSE|            1746     0.39961389E-007     0.10000000E+002                6
 RTBSE| Simulation step         Convergence     Electron number  ETRS Iterations
 RTBSE|            1747     0.35039511E-007     0.10000000E+002                6
 RTBSE| Simulation step         Convergence     Electron number  ETRS Iterations
 RTBSE|            1748     0.51384790E-007     0.10000000E+002                6
 RTBSE| Simulation step         Convergence     Electron number  ETRS Iterations
 RTBSE|            1749     0.64688617E-007     0.10000000E+002                6
 RTBSE| Simulation step         Convergence     Electron number  ETRS Iterations
 RTBSE|            1750     0.73074546E-007     0.10000000E+002                6
 RTBSE| Simulation step         Convergence     Electron number  ETRS Iterations
 RTBSE|            1751     0.76136488E-007     0.10000000E+002                6
 RTBSE| Simulation step         Convergence     Electron number  ETRS Iterations
 RTBSE|            1752     0.74495601E-007     0.10000000E+002                6
 RTBSE| Simulation step         Convergence     Electron number  ETRS Iterations
 RTBSE|            1753     0.69710089E-007     0.10000000E+002                6
 RTBSE| Simulation step         Convergence     Electron number  ETRS Iterations
 RTBSE|            1754     0.63753704E-007     0.10000000E+002                6
 RTBSE| Simulation step         Convergence     Electron number  ETRS Iterations
 RTBSE|            1755     0.58907276E-007     0.10000000E+002                6
 RTBSE| Simulation step         Convergence     Electron number  ETRS Iterations
 RTBSE|            1756     0.57132453E-007     0.10000000E+002                6
 RTBSE| Simulation step         Convergence     Electron number  ETRS Iterations
 RTBSE|            1757     0.59845583E-007     0.10000000E+002                6
 RTBSE| Simulation step         Convergence     Electron number  ETRS Iterations
 RTBSE|            1758     0.67612726E-007     0.10000000E+002                6
 RTBSE| Simulation step         Convergence     Electron number  ETRS Iterations
 RTBSE|            1759     0.79892427E-007     0.10000000E+002                6
 RTBSE| Simulation step         Convergence     Electron number  ETRS Iterations
 RTBSE|            1760     0.95325761E-007     0.10000000E+002                6
 RTBSE| Simulation step         Convergence     Electron number  ETRS Iterations
 RTBSE|            1761     0.20471240E-007     0.10000000E+002                7
 RTBSE| Simulation step         Convergence     Electron number  ETRS Iterations
 RTBSE|            1762     0.23658610E-007     0.10000000E+002                7
 RTBSE| Simulation step         Convergence     Electron number  ETRS Iterations
 RTBSE|            1763     0.26190602E-007     0.10000000E+002                7
 RTBSE| Simulation step         Convergence     Electron number  ETRS Iterations
 RTBSE|            1764     0.27605153E-007     0.10000000E+002                7
 RTBSE| Simulation step         Convergence     Electron number  ETRS Iterations
 RTBSE|            1765     0.27624665E-007     0.10000000E+002                7
 RTBSE| Simulation step         Convergence     Electron number  ETRS Iterations
 RTBSE|            1766     0.26172204E-007     0.10000000E+002                7
 RTBSE| Simulation step         Convergence     Electron number  ETRS Iterations
 RTBSE|            1767     0.23323935E-007     0.10000000E+002                7
 RTBSE| Simulation step         Convergence     Electron number  ETRS Iterations
 RTBSE|            1768     0.19377209E-007     0.10000000E+002                7
 RTBSE| Simulation step         Convergence     Electron number  ETRS Iterations
 RTBSE|            1769     0.14687225E-007     0.10000000E+002                7
 RTBSE| Simulation step         Convergence     Electron number  ETRS Iterations
 RTBSE|            1770     0.89881314E-007     0.10000000E+002                6
 RTBSE| Simulation step         Convergence     Electron number  ETRS Iterations
 RTBSE|            1771     0.64449380E-007     0.10000000E+002                6
 RTBSE| Simulation step         Convergence     Electron number  ETRS Iterations
 RTBSE|            1772     0.39141786E-007     0.10000000E+002                6
 RTBSE| Simulation step         Convergence     Electron number  ETRS Iterations
 RTBSE|            1773     0.29445752E-007     0.10000000E+002                6
 RTBSE| Simulation step         Convergence     Electron number  ETRS Iterations
 RTBSE|            1774     0.41941750E-007     0.10000000E+002                6
 RTBSE| Simulation step         Convergence     Electron number  ETRS Iterations
 RTBSE|            1775     0.50744470E-007     0.10000000E+002                6
 RTBSE| Simulation step         Convergence     Electron number  ETRS Iterations
 RTBSE|            1776     0.54824576E-007     0.10000000E+002                6
 RTBSE| Simulation step         Convergence     Electron number  ETRS Iterations
 RTBSE|            1777     0.54620569E-007     0.10000000E+002                6
 RTBSE| Simulation step         Convergence     Electron number  ETRS Iterations
 RTBSE|            1778     0.51286057E-007     0.10000000E+002                6
 RTBSE| Simulation step         Convergence     Electron number  ETRS Iterations
 RTBSE|            1779     0.46386672E-007     0.10000000E+002                6
 RTBSE| Simulation step         Convergence     Electron number  ETRS Iterations
 RTBSE|            1780     0.41587349E-007     0.10000000E+002                6
 RTBSE| Simulation step         Convergence     Electron number  ETRS Iterations
 RTBSE|            1781     0.38451469E-007     0.10000000E+002                6
 RTBSE| Simulation step         Convergence     Electron number  ETRS Iterations
 RTBSE|            1782     0.38108491E-007     0.10000000E+002                6
 RTBSE| Simulation step         Convergence     Electron number  ETRS Iterations
 RTBSE|            1783     0.41210029E-007     0.10000000E+002                6
 RTBSE| Simulation step         Convergence     Electron number  ETRS Iterations
 RTBSE|            1784     0.47780493E-007     0.10000000E+002                6
 RTBSE| Simulation step         Convergence     Electron number  ETRS Iterations
 RTBSE|            1785     0.57308593E-007     0.10000000E+002                6
 RTBSE| Simulation step         Convergence     Electron number  ETRS Iterations
 RTBSE|            1786     0.68834594E-007     0.10000000E+002                6
 RTBSE| Simulation step         Convergence     Electron number  ETRS Iterations
 RTBSE|            1787     0.81025181E-007     0.10000000E+002                6
 RTBSE| Simulation step         Convergence     Electron number  ETRS Iterations
 RTBSE|            1788     0.92365349E-007     0.10000000E+002                6
 RTBSE| Simulation step         Convergence     Electron number  ETRS Iterations
 RTBSE|            1789     0.17724222E-007     0.10000000E+002                7
 RTBSE| Simulation step         Convergence     Electron number  ETRS Iterations
 RTBSE|            1790     0.18882336E-007     0.10000000E+002                7
 RTBSE| Simulation step         Convergence     Electron number  ETRS Iterations
 RTBSE|            1791     0.19172818E-007     0.10000000E+002                7
 RTBSE| Simulation step         Convergence     Electron number  ETRS Iterations
 RTBSE|            1792     0.18441483E-007     0.10000000E+002                7
 RTBSE| Simulation step         Convergence     Electron number  ETRS Iterations
 RTBSE|            1793     0.16600269E-007     0.10000000E+002                7
 RTBSE| Simulation step         Convergence     Electron number  ETRS Iterations
 RTBSE|            1794     0.13708391E-007     0.10000000E+002                7
 RTBSE| Simulation step         Convergence     Electron number  ETRS Iterations
 RTBSE|            1795     0.87404798E-007     0.10000000E+002                6
 RTBSE| Simulation step         Convergence     Electron number  ETRS Iterations
 RTBSE|            1796     0.66879358E-007     0.10000000E+002                6
 RTBSE| Simulation step         Convergence     Electron number  ETRS Iterations
 RTBSE|            1797     0.43536570E-007     0.10000000E+002                6
 RTBSE| Simulation step         Convergence     Electron number  ETRS Iterations
 RTBSE|            1798     0.29916624E-007     0.10000000E+002                6
 RTBSE| Simulation step         Convergence     Electron number  ETRS Iterations
 RTBSE|            1799     0.44753758E-007     0.10000000E+002                6
 RTBSE| Simulation step         Convergence     Electron number  ETRS Iterations
 RTBSE|            1800     0.57162999E-007     0.10000000E+002                6
 RTBSE| Simulation step         Convergence     Electron number  ETRS Iterations
 RTBSE|            1801     0.65057568E-007     0.10000000E+002                6
 RTBSE| Simulation step         Convergence     Electron number  ETRS Iterations
 RTBSE|            1802     0.68014644E-007     0.10000000E+002                6
 RTBSE| Simulation step         Convergence     Electron number  ETRS Iterations
 RTBSE|            1803     0.66771872E-007     0.10000000E+002                6
 RTBSE| Simulation step         Convergence     Electron number  ETRS Iterations
 RTBSE|            1804     0.62761360E-007     0.10000000E+002                6
 RTBSE| Simulation step         Convergence     Electron number  ETRS Iterations
 RTBSE|            1805     0.57932882E-007     0.10000000E+002                6
 RTBSE| Simulation step         Convergence     Electron number  ETRS Iterations
 RTBSE|            1806     0.54465095E-007     0.10000000E+002                6
 RTBSE| Simulation step         Convergence     Electron number  ETRS Iterations
 RTBSE|            1807     0.54290022E-007     0.10000000E+002                6
 RTBSE| Simulation step         Convergence     Electron number  ETRS Iterations
 RTBSE|            1808     0.58704091E-007     0.10000000E+002                6
 RTBSE| Simulation step         Convergence     Electron number  ETRS Iterations
 RTBSE|            1809     0.68073353E-007     0.10000000E+002                6
 RTBSE| Simulation step         Convergence     Electron number  ETRS Iterations
 RTBSE|            1810     0.81865884E-007     0.10000000E+002                6
 RTBSE| Simulation step         Convergence     Electron number  ETRS Iterations
 RTBSE|            1811     0.98603614E-007     0.10000000E+002                6
 RTBSE| Simulation step         Convergence     Electron number  ETRS Iterations
 RTBSE|            1812     0.21186169E-007     0.10000000E+002                7
 RTBSE| Simulation step         Convergence     Electron number  ETRS Iterations
 RTBSE|            1813     0.24541062E-007     0.10000000E+002                7
 RTBSE| Simulation step         Convergence     Electron number  ETRS Iterations
 RTBSE|            1814     0.27181341E-007     0.10000000E+002                7
 RTBSE| Simulation step         Convergence     Electron number  ETRS Iterations
 RTBSE|            1815     0.28669055E-007     0.10000000E+002                7
 RTBSE| Simulation step         Convergence     Electron number  ETRS Iterations
 RTBSE|            1816     0.28706600E-007     0.10000000E+002                7
 RTBSE| Simulation step         Convergence     Electron number  ETRS Iterations
 RTBSE|            1817     0.27226478E-007     0.10000000E+002                7
 RTBSE| Simulation step         Convergence     Electron number  ETRS Iterations
 RTBSE|            1818     0.24346398E-007     0.10000000E+002                7
 RTBSE| Simulation step         Convergence     Electron number  ETRS Iterations
 RTBSE|            1819     0.20338229E-007     0.10000000E+002                7
 RTBSE| Simulation step         Convergence     Electron number  ETRS Iterations
 RTBSE|            1820     0.15579487E-007     0.10000000E+002                7
 RTBSE| Simulation step         Convergence     Electron number  ETRS Iterations
 RTBSE|            1821     0.94217978E-007     0.10000000E+002                6
 RTBSE| Simulation step         Convergence     Electron number  ETRS Iterations
 RTBSE|            1822     0.68542002E-007     0.10000000E+002                6
 RTBSE| Simulation step         Convergence     Electron number  ETRS Iterations
 RTBSE|            1823     0.43003997E-007     0.10000000E+002                6
 RTBSE| Simulation step         Convergence     Electron number  ETRS Iterations
 RTBSE|            1824     0.26510836E-007     0.10000000E+002                6
 RTBSE| Simulation step         Convergence     Electron number  ETRS Iterations
 RTBSE|            1825     0.38656998E-007     0.10000000E+002                6
 RTBSE| Simulation step         Convergence     Electron number  ETRS Iterations
 RTBSE|            1826     0.47453815E-007     0.10000000E+002                6
 RTBSE| Simulation step         Convergence     Electron number  ETRS Iterations
 RTBSE|            1827     0.51655622E-007     0.10000000E+002                6
 RTBSE| Simulation step         Convergence     Electron number  ETRS Iterations
 RTBSE|            1828     0.51657789E-007     0.10000000E+002                6
 RTBSE| Simulation step         Convergence     Electron number  ETRS Iterations
 RTBSE|            1829     0.48600771E-007     0.10000000E+002                6
 RTBSE| Simulation step         Convergence     Electron number  ETRS Iterations
 RTBSE|            1830     0.43992137E-007     0.10000000E+002                6
 RTBSE| Simulation step         Convergence     Electron number  ETRS Iterations
 RTBSE|            1831     0.39509680E-007     0.10000000E+002                6
 RTBSE| Simulation step         Convergence     Electron number  ETRS Iterations
 RTBSE|            1832     0.36706127E-007     0.10000000E+002                6
 RTBSE| Simulation step         Convergence     Electron number  ETRS Iterations
 RTBSE|            1833     0.36689326E-007     0.10000000E+002                6
 RTBSE| Simulation step         Convergence     Electron number  ETRS Iterations
 RTBSE|            1834     0.40094280E-007     0.10000000E+002                6
 RTBSE| Simulation step         Convergence     Electron number  ETRS Iterations
 RTBSE|            1835     0.46919512E-007     0.10000000E+002                6
 RTBSE| Simulation step         Convergence     Electron number  ETRS Iterations
 RTBSE|            1836     0.56670182E-007     0.10000000E+002                6
 RTBSE| Simulation step         Convergence     Electron number  ETRS Iterations
 RTBSE|            1837     0.68352674E-007     0.10000000E+002                6
 RTBSE| Simulation step         Convergence     Electron number  ETRS Iterations
 RTBSE|            1838     0.80656172E-007     0.10000000E+002                6
 RTBSE| Simulation step         Convergence     Electron number  ETRS Iterations
 RTBSE|            1839     0.92132750E-007     0.10000000E+002                6
 RTBSE| Simulation step         Convergence     Electron number  ETRS Iterations
 RTBSE|            1840     0.17655467E-007     0.10000000E+002                7
 RTBSE| Simulation step         Convergence     Electron number  ETRS Iterations
 RTBSE|            1841     0.18845009E-007     0.10000000E+002                7
 RTBSE| Simulation step         Convergence     Electron number  ETRS Iterations
 RTBSE|            1842     0.19198698E-007     0.10000000E+002                7
 RTBSE| Simulation step         Convergence     Electron number  ETRS Iterations
 RTBSE|            1843     0.18555524E-007     0.10000000E+002                7
 RTBSE| Simulation step         Convergence     Electron number  ETRS Iterations
 RTBSE|            1844     0.16847045E-007     0.10000000E+002                7
 RTBSE| Simulation step         Convergence     Electron number  ETRS Iterations
 RTBSE|            1845     0.14127299E-007     0.10000000E+002                7
 RTBSE| Simulation step         Convergence     Electron number  ETRS Iterations
 RTBSE|            1846     0.88911457E-007     0.10000000E+002                6
 RTBSE| Simulation step         Convergence     Electron number  ETRS Iterations
 RTBSE|            1847     0.69784533E-007     0.10000000E+002                6
 RTBSE| Simulation step         Convergence     Electron number  ETRS Iterations
 RTBSE|            1848     0.47990243E-007     0.10000000E+002                6
 RTBSE| Simulation step         Convergence     Electron number  ETRS Iterations
 RTBSE|            1849     0.25580109E-007     0.10000000E+002                6
 RTBSE| Simulation step         Convergence     Electron number  ETRS Iterations
 RTBSE|            1850     0.37758410E-007     0.10000000E+002                6
 RTBSE| Simulation step         Convergence     Electron number  ETRS Iterations
 RTBSE|            1851     0.49438976E-007     0.10000000E+002                6
 RTBSE| Simulation step         Convergence     Electron number  ETRS Iterations
 RTBSE|            1852     0.57237692E-007     0.10000000E+002                6
 RTBSE| Simulation step         Convergence     Electron number  ETRS Iterations
 RTBSE|            1853     0.60703958E-007     0.10000000E+002                6
 RTBSE| Simulation step         Convergence     Electron number  ETRS Iterations
 RTBSE|            1854     0.60378267E-007     0.10000000E+002                6
 RTBSE| Simulation step         Convergence     Electron number  ETRS Iterations
 RTBSE|            1855     0.57645866E-007     0.10000000E+002                6
 RTBSE| Simulation step         Convergence     Electron number  ETRS Iterations
 RTBSE|            1856     0.54354244E-007     0.10000000E+002                6
 RTBSE| Simulation step         Convergence     Electron number  ETRS Iterations
 RTBSE|            1857     0.52453261E-007     0.10000000E+002                6
 RTBSE| Simulation step         Convergence     Electron number  ETRS Iterations
 RTBSE|            1858     0.53740996E-007     0.10000000E+002                6
 RTBSE| Simulation step         Convergence     Electron number  ETRS Iterations
 RTBSE|            1859     0.59293838E-007     0.10000000E+002                6
 RTBSE| Simulation step         Convergence     Electron number  ETRS Iterations
 RTBSE|            1860     0.69578751E-007     0.10000000E+002                6
 RTBSE| Simulation step         Convergence     Electron number  ETRS Iterations
 RTBSE|            1861     0.84005450E-007     0.10000000E+002                6
 RTBSE| Simulation step         Convergence     Electron number  ETRS Iterations
 RTBSE|            1862     0.18062407E-007     0.10000000E+002                7
 RTBSE| Simulation step         Convergence     Electron number  ETRS Iterations
 RTBSE|            1863     0.21651434E-007     0.10000000E+002                7
 RTBSE| Simulation step         Convergence     Electron number  ETRS Iterations
 RTBSE|            1864     0.25020687E-007     0.10000000E+002                7
 RTBSE| Simulation step         Convergence     Electron number  ETRS Iterations
 RTBSE|            1865     0.27661794E-007     0.10000000E+002                7
 RTBSE| Simulation step         Convergence     Electron number  ETRS Iterations
 RTBSE|            1866     0.29150635E-007     0.10000000E+002                7
 RTBSE| Simulation step         Convergence     Electron number  ETRS Iterations
 RTBSE|            1867     0.29208646E-007     0.10000000E+002                7
 RTBSE| Simulation step         Convergence     Electron number  ETRS Iterations
 RTBSE|            1868     0.27755663E-007     0.10000000E+002                7
 RTBSE| Simulation step         Convergence     Electron number  ETRS Iterations
 RTBSE|            1869     0.24896968E-007     0.10000000E+002                7
 RTBSE| Simulation step         Convergence     Electron number  ETRS Iterations
 RTBSE|            1870     0.20930075E-007     0.10000000E+002                7
 RTBSE| Simulation step         Convergence     Electron number  ETRS Iterations
 RTBSE|            1871     0.16225912E-007     0.10000000E+002                7
 RTBSE| Simulation step         Convergence     Electron number  ETRS Iterations
 RTBSE|            1872     0.97070163E-007     0.10000000E+002                6
 RTBSE| Simulation step         Convergence     Electron number  ETRS Iterations
 RTBSE|            1873     0.71630488E-007     0.10000000E+002                6
 RTBSE| Simulation step         Convergence     Electron number  ETRS Iterations
 RTBSE|            1874     0.46367475E-007     0.10000000E+002                6
 RTBSE| Simulation step         Convergence     Electron number  ETRS Iterations
 RTBSE|            1875     0.23216234E-007     0.10000000E+002                6
 RTBSE| Simulation step         Convergence     Electron number  ETRS Iterations
 RTBSE|            1876     0.34262396E-007     0.10000000E+002                6
 RTBSE| Simulation step         Convergence     Electron number  ETRS Iterations
 RTBSE|            1877     0.42799114E-007     0.10000000E+002                6
 RTBSE| Simulation step         Convergence     Electron number  ETRS Iterations
 RTBSE|            1878     0.46991350E-007     0.10000000E+002                6
 RTBSE| Simulation step         Convergence     Electron number  ETRS Iterations
 RTBSE|            1879     0.47162489E-007     0.10000000E+002                6
 RTBSE| Simulation step         Convergence     Electron number  ETRS Iterations
 RTBSE|            1880     0.44353368E-007     0.10000000E+002                6
 RTBSE| Simulation step         Convergence     Electron number  ETRS Iterations
 RTBSE|            1881     0.40107055E-007     0.10000000E+002                6
 RTBSE| Simulation step         Convergence     Electron number  ETRS Iterations
 RTBSE|            1882     0.36114445E-007     0.10000000E+002                6
 RTBSE| Simulation step         Convergence     Electron number  ETRS Iterations
 RTBSE|            1883     0.33790087E-007     0.10000000E+002                6
 RTBSE| Simulation step         Convergence     Electron number  ETRS Iterations
 RTBSE|            1884     0.34313076E-007     0.10000000E+002                6
 RTBSE| Simulation step         Convergence     Electron number  ETRS Iterations
 RTBSE|            1885     0.38166348E-007     0.10000000E+002                6
 RTBSE| Simulation step         Convergence     Electron number  ETRS Iterations
 RTBSE|            1886     0.45352953E-007     0.10000000E+002                6
 RTBSE| Simulation step         Convergence     Electron number  ETRS Iterations
 RTBSE|            1887     0.55356767E-007     0.10000000E+002                6
 RTBSE| Simulation step         Convergence     Electron number  ETRS Iterations
 RTBSE|            1888     0.67262461E-007     0.10000000E+002                6
 RTBSE| Simulation step         Convergence     Electron number  ETRS Iterations
 RTBSE|            1889     0.79844400E-007     0.10000000E+002                6
 RTBSE| Simulation step         Convergence     Electron number  ETRS Iterations
 RTBSE|            1890     0.91590184E-007     0.10000000E+002                6
 RTBSE| Simulation step         Convergence     Electron number  ETRS Iterations
 RTBSE|            1891     0.17538345E-007     0.10000000E+002                7
 RTBSE| Simulation step         Convergence     Electron number  ETRS Iterations
 RTBSE|            1892     0.18805571E-007     0.10000000E+002                7
 RTBSE| Simulation step         Convergence     Electron number  ETRS Iterations
 RTBSE|            1893     0.19283334E-007     0.10000000E+002                7
 RTBSE| Simulation step         Convergence     Electron number  ETRS Iterations
 RTBSE|            1894     0.18810223E-007     0.10000000E+002                7
 RTBSE| Simulation step         Convergence     Electron number  ETRS Iterations
 RTBSE|            1895     0.17311986E-007     0.10000000E+002                7
 RTBSE| Simulation step         Convergence     Electron number  ETRS Iterations
 RTBSE|            1896     0.14820208E-007     0.10000000E+002                7
 RTBSE| Simulation step         Convergence     Electron number  ETRS Iterations
 RTBSE|            1897     0.92103366E-007     0.10000000E+002                6
 RTBSE| Simulation step         Convergence     Electron number  ETRS Iterations
 RTBSE|            1898     0.74663356E-007     0.10000000E+002                6
 RTBSE| Simulation step         Convergence     Electron number  ETRS Iterations
 RTBSE|            1899     0.54515216E-007     0.10000000E+002                6
 RTBSE| Simulation step         Convergence     Electron number  ETRS Iterations
 RTBSE|            1900     0.33501601E-007     0.10000000E+002                6
 RTBSE| Simulation step         Convergence     Electron number  ETRS Iterations
 RTBSE|            1901     0.30623053E-007     0.10000000E+002                6
 RTBSE| Simulation step         Convergence     Electron number  ETRS Iterations
 RTBSE|            1902     0.41775944E-007     0.10000000E+002                6
 RTBSE| Simulation step         Convergence     Electron number  ETRS Iterations
 RTBSE|            1903     0.49931807E-007     0.10000000E+002                6
 RTBSE| Simulation step         Convergence     Electron number  ETRS Iterations
 RTBSE|            1904     0.54346613E-007     0.10000000E+002                6
 RTBSE| Simulation step         Convergence     Electron number  ETRS Iterations
 RTBSE|            1905     0.55330936E-007     0.10000000E+002                6
 RTBSE| Simulation step         Convergence     Electron number  ETRS Iterations
 RTBSE|            1906     0.54101005E-007     0.10000000E+002                6
 RTBSE| Simulation step         Convergence     Electron number  ETRS Iterations
 RTBSE|            1907     0.52311291E-007     0.10000000E+002                6
 RTBSE| Simulation step         Convergence     Electron number  ETRS Iterations
 RTBSE|            1908     0.51752867E-007     0.10000000E+002                6
 RTBSE| Simulation step         Convergence     Electron number  ETRS Iterations
 RTBSE|            1909     0.54079754E-007     0.10000000E+002                6
 RTBSE| Simulation step         Convergence     Electron number  ETRS Iterations
 RTBSE|            1910     0.60434198E-007     0.10000000E+002                6
 RTBSE| Simulation step         Convergence     Electron number  ETRS Iterations
 RTBSE|            1911     0.71180092E-007     0.10000000E+002                6
 RTBSE| Simulation step         Convergence     Electron number  ETRS Iterations
 RTBSE|            1912     0.85833522E-007     0.10000000E+002                6
 RTBSE| Simulation step         Convergence     Electron number  ETRS Iterations
 RTBSE|            1913     0.18354822E-007     0.10000000E+002                7
 RTBSE| Simulation step         Convergence     Electron number  ETRS Iterations
 RTBSE|            1914     0.21915142E-007     0.10000000E+002                7
 RTBSE| Simulation step         Convergence     Electron number  ETRS Iterations
 RTBSE|            1915     0.25246765E-007     0.10000000E+002                7
 RTBSE| Simulation step         Convergence     Electron number  ETRS Iterations
 RTBSE|            1916     0.27865855E-007     0.10000000E+002                7
 RTBSE| Simulation step         Convergence     Electron number  ETRS Iterations
 RTBSE|            1917     0.29357245E-007     0.10000000E+002                7
 RTBSE| Simulation step         Convergence     Electron number  ETRS Iterations
 RTBSE|            1918     0.29444970E-007     0.10000000E+002                7
 RTBSE| Simulation step         Convergence     Electron number  ETRS Iterations
 RTBSE|            1919     0.28052029E-007     0.10000000E+002                7
 RTBSE| Simulation step         Convergence     Electron number  ETRS Iterations
 RTBSE|            1920     0.25281703E-007     0.10000000E+002                7
 RTBSE| Simulation step         Convergence     Electron number  ETRS Iterations
 RTBSE|            1921     0.21417851E-007     0.10000000E+002                7
 RTBSE| Simulation step         Convergence     Electron number  ETRS Iterations
 RTBSE|            1922     0.16825466E-007     0.10000000E+002                7
 RTBSE| Simulation step         Convergence     Electron number  ETRS Iterations
 RTBSE|            1923     0.99494944E-007     0.10000000E+002                6
 RTBSE| Simulation step         Convergence     Electron number  ETRS Iterations
 RTBSE|            1924     0.74816815E-007     0.10000000E+002                6
 RTBSE| Simulation step         Convergence     Electron number  ETRS Iterations
 RTBSE|            1925     0.50354850E-007     0.10000000E+002                6
 RTBSE| Simulation step         Convergence     Electron number  ETRS Iterations
 RTBSE|            1926     0.27989072E-007     0.10000000E+002                6
 RTBSE| Simulation step         Convergence     Electron number  ETRS Iterations
 RTBSE|            1927     0.28359871E-007     0.10000000E+002                6
 RTBSE| Simulation step         Convergence     Electron number  ETRS Iterations
 RTBSE|            1928     0.36336179E-007     0.10000000E+002                6
 RTBSE| Simulation step         Convergence     Electron number  ETRS Iterations
 RTBSE|            1929     0.40447013E-007     0.10000000E+002                6
 RTBSE| Simulation step         Convergence     Electron number  ETRS Iterations
 RTBSE|            1930     0.40852978E-007     0.10000000E+002                6
 RTBSE| Simulation step         Convergence     Electron number  ETRS Iterations
 RTBSE|            1931     0.38580262E-007     0.10000000E+002                6
 RTBSE| Simulation step         Convergence     Electron number  ETRS Iterations
 RTBSE|            1932     0.35087908E-007     0.10000000E+002                6
 RTBSE| Simulation step         Convergence     Electron number  ETRS Iterations
 RTBSE|            1933     0.31967530E-007     0.10000000E+002                6
 RTBSE| Simulation step         Convergence     Electron number  ETRS Iterations
 RTBSE|            1934     0.30602026E-007     0.10000000E+002                6
 RTBSE| Simulation step         Convergence     Electron number  ETRS Iterations
 RTBSE|            1935     0.32018792E-007     0.10000000E+002                6
 RTBSE| Simulation step         Convergence     Electron number  ETRS Iterations
 RTBSE|            1936     0.36696012E-007     0.10000000E+002                6
 RTBSE| Simulation step         Convergence     Electron number  ETRS Iterations
 RTBSE|            1937     0.44595442E-007     0.10000000E+002                6
 RTBSE| Simulation step         Convergence     Electron number  ETRS Iterations
 RTBSE|            1938     0.55224644E-007     0.10000000E+002                6
 RTBSE| Simulation step         Convergence     Electron number  ETRS Iterations
 RTBSE|            1939     0.67671703E-007     0.10000000E+002                6
 RTBSE| Simulation step         Convergence     Electron number  ETRS Iterations
 RTBSE|            1940     0.80695811E-007     0.10000000E+002                6
 RTBSE| Simulation step         Convergence     Electron number  ETRS Iterations
 RTBSE|            1941     0.92908810E-007     0.10000000E+002                6
 RTBSE| Simulation step         Convergence     Electron number  ETRS Iterations
 RTBSE|            1942     0.17764720E-007     0.10000000E+002                7
 RTBSE| Simulation step         Convergence     Electron number  ETRS Iterations
 RTBSE|            1943     0.19146452E-007     0.10000000E+002                7
 RTBSE| Simulation step         Convergence     Electron number  ETRS Iterations
 RTBSE|            1944     0.19734378E-007     0.10000000E+002                7
 RTBSE| Simulation step         Convergence     Electron number  ETRS Iterations
 RTBSE|            1945     0.19382621E-007     0.10000000E+002                7
 RTBSE| Simulation step         Convergence     Electron number  ETRS Iterations
 RTBSE|            1946     0.18030828E-007     0.10000000E+002                7
 RTBSE| Simulation step         Convergence     Electron number  ETRS Iterations
 RTBSE|            1947     0.15696149E-007     0.10000000E+002                7
 RTBSE| Simulation step         Convergence     Electron number  ETRS Iterations
 RTBSE|            1948     0.96423597E-007     0.10000000E+002                6
 RTBSE| Simulation step         Convergence     Electron number  ETRS Iterations
 RTBSE|            1949     0.79918775E-007     0.10000000E+002                6
 RTBSE| Simulation step         Convergence     Electron number  ETRS Iterations
 RTBSE|            1950     0.60560961E-007     0.10000000E+002                6
 RTBSE| Simulation step         Convergence     Electron number  ETRS Iterations
 RTBSE|            1951     0.40076023E-007     0.10000000E+002                6
 RTBSE| Simulation step         Convergence     Electron number  ETRS Iterations
 RTBSE|            1952     0.26100845E-007     0.10000000E+002                6
 RTBSE| Simulation step         Convergence     Electron number  ETRS Iterations
 RTBSE|            1953     0.36767054E-007     0.10000000E+002                6
 RTBSE| Simulation step         Convergence     Electron number  ETRS Iterations
 RTBSE|            1954     0.45310868E-007     0.10000000E+002                6
 RTBSE| Simulation step         Convergence     Electron number  ETRS Iterations
 RTBSE|            1955     0.50385041E-007     0.10000000E+002                6
 RTBSE| Simulation step         Convergence     Electron number  ETRS Iterations
 RTBSE|            1956     0.52248666E-007     0.10000000E+002                6
 RTBSE| Simulation step         Convergence     Electron number  ETRS Iterations
 RTBSE|            1957     0.51948348E-007     0.10000000E+002                6
 RTBSE| Simulation step         Convergence     Electron number  ETRS Iterations
 RTBSE|            1958     0.50996914E-007     0.10000000E+002                6
 RTBSE| Simulation step         Convergence     Electron number  ETRS Iterations
 RTBSE|            1959     0.51217704E-007     0.10000000E+002                6
 RTBSE| Simulation step         Convergence     Electron number  ETRS Iterations
 RTBSE|            1960     0.54106430E-007     0.10000000E+002                6
 RTBSE| Simulation step         Convergence     Electron number  ETRS Iterations
 RTBSE|            1961     0.60790487E-007     0.10000000E+002                6
 RTBSE| Simulation step         Convergence     Electron number  ETRS Iterations
 RTBSE|            1962     0.71656206E-007     0.10000000E+002                6
 RTBSE| Simulation step         Convergence     Electron number  ETRS Iterations
 RTBSE|            1963     0.86318733E-007     0.10000000E+002                6
 RTBSE| Simulation step         Convergence     Electron number  ETRS Iterations
 RTBSE|            1964     0.18401283E-007     0.10000000E+002                7
 RTBSE| Simulation step         Convergence     Electron number  ETRS Iterations
 RTBSE|            1965     0.21939939E-007     0.10000000E+002                7
 RTBSE| Simulation step         Convergence     Electron number  ETRS Iterations
 RTBSE|            1966     0.25230195E-007     0.10000000E+002                7
 RTBSE| Simulation step         Convergence     Electron number  ETRS Iterations
 RTBSE|            1967     0.27840918E-007     0.10000000E+002                7
 RTBSE| Simulation step         Convergence     Electron number  ETRS Iterations
 RTBSE|            1968     0.29349274E-007     0.10000000E+002                7
 RTBSE| Simulation step         Convergence     Electron number  ETRS Iterations
 RTBSE|            1969     0.29503565E-007     0.10000000E+002                7
 RTBSE| Simulation step         Convergence     Electron number  ETRS Iterations
 RTBSE|            1970     0.28211911E-007     0.10000000E+002                7
 RTBSE| Simulation step         Convergence     Electron number  ETRS Iterations
 RTBSE|            1971     0.25572998E-007     0.10000000E+002                7
 RTBSE| Simulation step         Convergence     Electron number  ETRS Iterations
 RTBSE|            1972     0.21864667E-007     0.10000000E+002                7
 RTBSE| Simulation step         Convergence     Electron number  ETRS Iterations
 RTBSE|            1973     0.17430876E-007     0.10000000E+002                7
 RTBSE| Simulation step         Convergence     Electron number  ETRS Iterations
 RTBSE|            1974     0.12700071E-007     0.10000000E+002                7
 RTBSE| Simulation step         Convergence     Electron number  ETRS Iterations
 RTBSE|            1975     0.78334284E-007     0.10000000E+002                6
 RTBSE| Simulation step         Convergence     Electron number  ETRS Iterations
 RTBSE|            1976     0.54912488E-007     0.10000000E+002                6
 RTBSE| Simulation step         Convergence     Electron number  ETRS Iterations
 RTBSE|            1977     0.33471304E-007     0.10000000E+002                6
 RTBSE| Simulation step         Convergence     Electron number  ETRS Iterations
 RTBSE|            1978     0.22350321E-007     0.10000000E+002                6
 RTBSE| Simulation step         Convergence     Electron number  ETRS Iterations
 RTBSE|            1979     0.29475046E-007     0.10000000E+002                6
 RTBSE| Simulation step         Convergence     Electron number  ETRS Iterations
 RTBSE|            1980     0.33539149E-007     0.10000000E+002                6
 RTBSE| Simulation step         Convergence     Electron number  ETRS Iterations
 RTBSE|            1981     0.34302781E-007     0.10000000E+002                6
 RTBSE| Simulation step         Convergence     Electron number  ETRS Iterations
 RTBSE|            1982     0.32695986E-007     0.10000000E+002                6
 RTBSE| Simulation step         Convergence     Electron number  ETRS Iterations
 RTBSE|            1983     0.30145474E-007     0.10000000E+002                6
 RTBSE| Simulation step         Convergence     Electron number  ETRS Iterations
 RTBSE|            1984     0.28116684E-007     0.10000000E+002                6
 RTBSE| Simulation step         Convergence     Electron number  ETRS Iterations
 RTBSE|            1985     0.27945530E-007     0.10000000E+002                6
 RTBSE| Simulation step         Convergence     Electron number  ETRS Iterations
 RTBSE|            1986     0.30534288E-007     0.10000000E+002                6
 RTBSE| Simulation step         Convergence     Electron number  ETRS Iterations
 RTBSE|            1987     0.36265022E-007     0.10000000E+002                6
 RTBSE| Simulation step         Convergence     Electron number  ETRS Iterations
 RTBSE|            1988     0.45085129E-007     0.10000000E+002                6
 RTBSE| Simulation step         Convergence     Electron number  ETRS Iterations
 RTBSE|            1989     0.56442781E-007     0.10000000E+002                6
 RTBSE| Simulation step         Convergence     Electron number  ETRS Iterations
 RTBSE|            1990     0.69486348E-007     0.10000000E+002                6
 RTBSE| Simulation step         Convergence     Electron number  ETRS Iterations
 RTBSE|            1991     0.82985133E-007     0.10000000E+002                6
 RTBSE| Simulation step         Convergence     Electron number  ETRS Iterations
 RTBSE|            1992     0.95542709E-007     0.10000000E+002                6
 RTBSE| Simulation step         Convergence     Electron number  ETRS Iterations
 RTBSE|            1993     0.18195549E-007     0.10000000E+002                7
 RTBSE| Simulation step         Convergence     Electron number  ETRS Iterations
 RTBSE|            1994     0.19581881E-007     0.10000000E+002                7
 RTBSE| Simulation step         Convergence     Electron number  ETRS Iterations
 RTBSE|            1995     0.20176482E-007     0.10000000E+002                7
 RTBSE| Simulation step         Convergence     Electron number  ETRS Iterations
 RTBSE|            1996     0.19838098E-007     0.10000000E+002                7
 RTBSE| Simulation step         Convergence     Electron number  ETRS Iterations
 RTBSE|            1997     0.18485204E-007     0.10000000E+002                7
 RTBSE| Simulation step         Convergence     Electron number  ETRS Iterations
 RTBSE|            1998     0.16171116E-007     0.10000000E+002                7
 RTBSE| Simulation step         Convergence     Electron number  ETRS Iterations
 RTBSE|            1999     0.98344774E-007     0.10000000E+002                6
 RTBSE| Simulation step         Convergence     Electron number  ETRS Iterations
 RTBSE|            2000     0.82081951E-007     0.10000000E+002                6
 RTBSE| Simulation step         Convergence     Electron number  ETRS Iterations
 RTBSE|            2001     0.63017078E-007     0.10000000E+002                6
 RTBSE| Simulation step         Convergence     Electron number  ETRS Iterations
 RTBSE|            2002     0.42922142E-007     0.10000000E+002                6
 RTBSE| Simulation step         Convergence     Electron number  ETRS Iterations
 RTBSE|            2003     0.23585320E-007     0.10000000E+002                6
 RTBSE| Simulation step         Convergence     Electron number  ETRS Iterations
 RTBSE|            2004     0.32920744E-007     0.10000000E+002                6
 RTBSE| Simulation step         Convergence     Electron number  ETRS Iterations
 RTBSE|            2005     0.41014451E-007     0.10000000E+002                6
 RTBSE| Simulation step         Convergence     Electron number  ETRS Iterations
 RTBSE|            2006     0.45920704E-007     0.10000000E+002                6
 RTBSE| Simulation step         Convergence     Electron number  ETRS Iterations
 RTBSE|            2007     0.47820894E-007     0.10000000E+002                6
 RTBSE| Simulation step         Convergence     Electron number  ETRS Iterations
 RTBSE|            2008     0.47699996E-007     0.10000000E+002                6
 RTBSE| Simulation step         Convergence     Electron number  ETRS Iterations
 RTBSE|            2009     0.47126817E-007     0.10000000E+002                6
 RTBSE| Simulation step         Convergence     Electron number  ETRS Iterations
 RTBSE|            2010     0.47759512E-007     0.10000000E+002                6
 RTBSE| Simulation step         Convergence     Electron number  ETRS Iterations
 RTBSE|            2011     0.51135266E-007     0.10000000E+002                6
 RTBSE| Simulation step         Convergence     Electron number  ETRS Iterations
 RTBSE|            2012     0.58244421E-007     0.10000000E+002                6
 RTBSE| Simulation step         Convergence     Electron number  ETRS Iterations
 RTBSE|            2013     0.69532043E-007     0.10000000E+002                6
 RTBSE| Simulation step         Convergence     Electron number  ETRS Iterations
 RTBSE|            2014     0.84454088E-007     0.10000000E+002                6
 RTBSE| Simulation step         Convergence     Electron number  ETRS Iterations
 RTBSE|            2015     0.18026186E-007     0.10000000E+002                7
 RTBSE| Simulation step         Convergence     Electron number  ETRS Iterations
 RTBSE|            2016     0.21581207E-007     0.10000000E+002                7
 RTBSE| Simulation step         Convergence     Electron number  ETRS Iterations
 RTBSE|            2017     0.24930194E-007     0.10000000E+002                7
 RTBSE| Simulation step         Convergence     Electron number  ETRS Iterations
 RTBSE|            2018     0.27600212E-007     0.10000000E+002                7
 RTBSE| Simulation step         Convergence     Electron number  ETRS Iterations
 RTBSE|            2019     0.29241113E-007     0.10000000E+002                7
 RTBSE| Simulation step         Convergence     Electron number  ETRS Iterations
 RTBSE|            2020     0.29553661E-007     0.10000000E+002                7
 RTBSE| Simulation step         Convergence     Electron number  ETRS Iterations
 RTBSE|            2021     0.28455793E-007     0.10000000E+002                7
 RTBSE| Simulation step         Convergence     Electron number  ETRS Iterations
 RTBSE|            2022     0.26037111E-007     0.10000000E+002                7
 RTBSE| Simulation step         Convergence     Electron number  ETRS Iterations
 RTBSE|            2023     0.22565223E-007     0.10000000E+002                7
 RTBSE| Simulation step         Convergence     Electron number  ETRS Iterations
 RTBSE|            2024     0.18365867E-007     0.10000000E+002                7
 RTBSE| Simulation step         Convergence     Electron number  ETRS Iterations
 RTBSE|            2025     0.13828731E-007     0.10000000E+002                7
 RTBSE| Simulation step         Convergence     Electron number  ETRS Iterations
 RTBSE|            2026     0.83782260E-007     0.10000000E+002                6
 RTBSE| Simulation step         Convergence     Electron number  ETRS Iterations
 RTBSE|            2027     0.61441106E-007     0.10000000E+002                6
 RTBSE| Simulation step         Convergence     Electron number  ETRS Iterations
 RTBSE|            2028     0.40894485E-007     0.10000000E+002                6
 RTBSE| Simulation step         Convergence     Electron number  ETRS Iterations
 RTBSE|            2029     0.23535181E-007     0.10000000E+002                6
 RTBSE| Simulation step         Convergence     Electron number  ETRS Iterations
 RTBSE|            2030     0.22097671E-007     0.10000000E+002                6
 RTBSE| Simulation step         Convergence     Electron number  ETRS Iterations
 RTBSE|            2031     0.26116841E-007     0.10000000E+002                6
 RTBSE| Simulation step         Convergence     Electron number  ETRS Iterations
 RTBSE|            2032     0.27499112E-007     0.10000000E+002                6
 RTBSE| Simulation step         Convergence     Electron number  ETRS Iterations
 RTBSE|            2033     0.26998131E-007     0.10000000E+002                6
 RTBSE| Simulation step         Convergence     Electron number  ETRS Iterations
 RTBSE|            2034     0.25824613E-007     0.10000000E+002                6
 RTBSE| Simulation step         Convergence     Electron number  ETRS Iterations
 RTBSE|            2035     0.25357868E-007     0.10000000E+002                6
 RTBSE| Simulation step         Convergence     Electron number  ETRS Iterations
 RTBSE|            2036     0.26753894E-007     0.10000000E+002                6
 RTBSE| Simulation step         Convergence     Electron number  ETRS Iterations
 RTBSE|            2037     0.30738116E-007     0.10000000E+002                6
 RTBSE| Simulation step         Convergence     Electron number  ETRS Iterations
 RTBSE|            2038     0.37701451E-007     0.10000000E+002                6
 RTBSE| Simulation step         Convergence     Electron number  ETRS Iterations
 RTBSE|            2039     0.47501644E-007     0.10000000E+002                6
 RTBSE| Simulation step         Convergence     Electron number  ETRS Iterations
 RTBSE|            2040     0.59545065E-007     0.10000000E+002                6
 RTBSE| Simulation step         Convergence     Electron number  ETRS Iterations
 RTBSE|            2041     0.72926022E-007     0.10000000E+002                6
 RTBSE| Simulation step         Convergence     Electron number  ETRS Iterations
 RTBSE|            2042     0.86393499E-007     0.10000000E+002                6
 RTBSE| Simulation step         Convergence     Electron number  ETRS Iterations
 RTBSE|            2043     0.98593506E-007     0.10000000E+002                6
 RTBSE| Simulation step         Convergence     Electron number  ETRS Iterations
 RTBSE|            2044     0.18611519E-007     0.10000000E+002                7
 RTBSE| Simulation step         Convergence     Electron number  ETRS Iterations
 RTBSE|            2045     0.19896908E-007     0.10000000E+002                7
 RTBSE| Simulation step         Convergence     Electron number  ETRS Iterations
 RTBSE|            2046     0.20370155E-007     0.10000000E+002                7
 RTBSE| Simulation step         Convergence     Electron number  ETRS Iterations
 RTBSE|            2047     0.19905396E-007     0.10000000E+002                7
 RTBSE| Simulation step         Convergence     Electron number  ETRS Iterations
 RTBSE|            2048     0.18473170E-007     0.10000000E+002                7
 RTBSE| Simulation step         Convergence     Electron number  ETRS Iterations
 RTBSE|            2049     0.16117249E-007     0.10000000E+002                7
 RTBSE| Simulation step         Convergence     Electron number  ETRS Iterations
 RTBSE|            2050     0.97154418E-007     0.10000000E+002                6
 RTBSE| Simulation step         Convergence     Electron number  ETRS Iterations
 RTBSE|            2051     0.81197292E-007     0.10000000E+002                6
 RTBSE| Simulation step         Convergence     Electron number  ETRS Iterations
 RTBSE|            2052     0.62855340E-007     0.10000000E+002                6
 RTBSE| Simulation step         Convergence     Electron number  ETRS Iterations
 RTBSE|            2053     0.43770621E-007     0.10000000E+002                6
 RTBSE| Simulation step         Convergence     Electron number  ETRS Iterations
 RTBSE|            2054     0.25683640E-007     0.10000000E+002                6
 RTBSE| Simulation step         Convergence     Electron number  ETRS Iterations
 RTBSE|            2055     0.28276769E-007     0.10000000E+002                6
 RTBSE| Simulation step         Convergence     Electron number  ETRS Iterations
 RTBSE|            2056     0.35190159E-007     0.10000000E+002                6
 RTBSE| Simulation step         Convergence     Electron number  ETRS Iterations
 RTBSE|            2057     0.39341938E-007     0.10000000E+002                6
 RTBSE| Simulation step         Convergence     Electron number  ETRS Iterations
 RTBSE|            2058     0.40893312E-007     0.10000000E+002                6
 RTBSE| Simulation step         Convergence     Electron number  ETRS Iterations
 RTBSE|            2059     0.40847260E-007     0.10000000E+002                6
 RTBSE| Simulation step         Convergence     Electron number  ETRS Iterations
 RTBSE|            2060     0.40703233E-007     0.10000000E+002                6
 RTBSE| Simulation step         Convergence     Electron number  ETRS Iterations
 RTBSE|            2061     0.42059907E-007     0.10000000E+002                6
 RTBSE| Simulation step         Convergence     Electron number  ETRS Iterations
 RTBSE|            2062     0.46335688E-007     0.10000000E+002                6
 RTBSE| Simulation step         Convergence     Electron number  ETRS Iterations
 RTBSE|            2063     0.54452703E-007     0.10000000E+002                6
 RTBSE| Simulation step         Convergence     Electron number  ETRS Iterations
 RTBSE|            2064     0.66673245E-007     0.10000000E+002                6
 RTBSE| Simulation step         Convergence     Electron number  ETRS Iterations
 RTBSE|            2065     0.82560986E-007     0.10000000E+002                6
 RTBSE| Simulation step         Convergence     Electron number  ETRS Iterations
 RTBSE|            2066     0.17704604E-007     0.10000000E+002                7
 RTBSE| Simulation step         Convergence     Electron number  ETRS Iterations
 RTBSE|            2067     0.21425120E-007     0.10000000E+002                7
 RTBSE| Simulation step         Convergence     Electron number  ETRS Iterations
 RTBSE|            2068     0.24926488E-007     0.10000000E+002                7
 RTBSE| Simulation step         Convergence     Electron number  ETRS Iterations
 RTBSE|            2069     0.27776218E-007     0.10000000E+002                7
 RTBSE| Simulation step         Convergence     Electron number  ETRS Iterations
 RTBSE|            2070     0.29555818E-007     0.10000000E+002                7
 RTBSE| Simulation step         Convergence     Electron number  ETRS Iterations
 RTBSE|            2071     0.30058765E-007     0.10000000E+002                7
 RTBSE| Simulation step         Convergence     Electron number  ETRS Iterations
 RTBSE|            2072     0.29146491E-007     0.10000000E+002                7
 RTBSE| Simulation step         Convergence     Electron number  ETRS Iterations
 RTBSE|            2073     0.26926143E-007     0.10000000E+002                7
 RTBSE| Simulation step         Convergence     Electron number  ETRS Iterations
 RTBSE|            2074     0.23632931E-007     0.10000000E+002                7
 RTBSE| Simulation step         Convergence     Electron number  ETRS Iterations
 RTBSE|            2075     0.19575592E-007     0.10000000E+002                7
 RTBSE| Simulation step         Convergence     Electron number  ETRS Iterations
 RTBSE|            2076     0.15173178E-007     0.10000000E+002                7
 RTBSE| Simulation step         Convergence     Electron number  ETRS Iterations
 RTBSE|            2077     0.90604181E-007     0.10000000E+002                6
 RTBSE| Simulation step         Convergence     Electron number  ETRS Iterations
 RTBSE|            2078     0.68986521E-007     0.10000000E+002                6
 RTBSE| Simulation step         Convergence     Electron number  ETRS Iterations
 RTBSE|            2079     0.48961559E-007     0.10000000E+002                6
 RTBSE| Simulation step         Convergence     Electron number  ETRS Iterations
 RTBSE|            2080     0.31828272E-007     0.10000000E+002                6
 RTBSE| Simulation step         Convergence     Electron number  ETRS Iterations
 RTBSE|            2081     0.18376071E-007     0.10000000E+002                6
 RTBSE| Simulation step         Convergence     Electron number  ETRS Iterations
 RTBSE|            2082     0.20676173E-007     0.10000000E+002                6
 RTBSE| Simulation step         Convergence     Electron number  ETRS Iterations
 RTBSE|            2083     0.22917632E-007     0.10000000E+002                6
 RTBSE| Simulation step         Convergence     Electron number  ETRS Iterations
 RTBSE|            2084     0.23751124E-007     0.10000000E+002                6
 RTBSE| Simulation step         Convergence     Electron number  ETRS Iterations
 RTBSE|            2085     0.24130963E-007     0.10000000E+002                6
 RTBSE| Simulation step         Convergence     Electron number  ETRS Iterations
 RTBSE|            2086     0.25236495E-007     0.10000000E+002                6
 RTBSE| Simulation step         Convergence     Electron number  ETRS Iterations
 RTBSE|            2087     0.27992987E-007     0.10000000E+002                6
 RTBSE| Simulation step         Convergence     Electron number  ETRS Iterations
 RTBSE|            2088     0.33072791E-007     0.10000000E+002                6
 RTBSE| Simulation step         Convergence     Electron number  ETRS Iterations
 RTBSE|            2089     0.40745701E-007     0.10000000E+002                6
 RTBSE| Simulation step         Convergence     Electron number  ETRS Iterations
 RTBSE|            2090     0.50806526E-007     0.10000000E+002                6
 RTBSE| Simulation step         Convergence     Electron number  ETRS Iterations
 RTBSE|            2091     0.62720826E-007     0.10000000E+002                6
 RTBSE| Simulation step         Convergence     Electron number  ETRS Iterations
 RTBSE|            2092     0.75550445E-007     0.10000000E+002                6
 RTBSE| Simulation step         Convergence     Electron number  ETRS Iterations
 RTBSE|            2093     0.88150720E-007     0.10000000E+002                6
 RTBSE| Simulation step         Convergence     Electron number  ETRS Iterations
 RTBSE|            2094     0.99310712E-007     0.10000000E+002                6
 RTBSE| Simulation step         Convergence     Electron number  ETRS Iterations
 RTBSE|            2095     0.18543437E-007     0.10000000E+002                7
 RTBSE| Simulation step         Convergence     Electron number  ETRS Iterations
 RTBSE|            2096     0.19625221E-007     0.10000000E+002                7
 RTBSE| Simulation step         Convergence     Electron number  ETRS Iterations
 RTBSE|            2097     0.19936771E-007     0.10000000E+002                7
 RTBSE| Simulation step         Convergence     Electron number  ETRS Iterations
 RTBSE|            2098     0.19385008E-007     0.10000000E+002                7
 RTBSE| Simulation step         Convergence     Electron number  ETRS Iterations
 RTBSE|            2099     0.17928403E-007     0.10000000E+002                7
 RTBSE| Simulation step         Convergence     Electron number  ETRS Iterations
 RTBSE|            2100     0.15657849E-007     0.10000000E+002                7
 RTBSE| Simulation step         Convergence     Electron number  ETRS Iterations
 RTBSE|            2101     0.93663476E-007     0.10000000E+002                6
 RTBSE| Simulation step         Convergence     Electron number  ETRS Iterations
 RTBSE|            2102     0.78840470E-007     0.10000000E+002                6
 RTBSE| Simulation step         Convergence     Electron number  ETRS Iterations
 RTBSE|            2103     0.62103243E-007     0.10000000E+002                6
 RTBSE| Simulation step         Convergence     Electron number  ETRS Iterations
 RTBSE|            2104     0.44997033E-007     0.10000000E+002                6
 RTBSE| Simulation step         Convergence     Electron number  ETRS Iterations
 RTBSE|            2105     0.29046587E-007     0.10000000E+002                6
 RTBSE| Simulation step         Convergence     Electron number  ETRS Iterations
 RTBSE|            2106     0.22196468E-007     0.10000000E+002                6
 RTBSE| Simulation step         Convergence     Electron number  ETRS Iterations
 RTBSE|            2107     0.27687809E-007     0.10000000E+002                6
 RTBSE| Simulation step         Convergence     Electron number  ETRS Iterations
 RTBSE|            2108     0.31116617E-007     0.10000000E+002                6
 RTBSE| Simulation step         Convergence     Electron number  ETRS Iterations
 RTBSE|            2109     0.32603036E-007     0.10000000E+002                6
 RTBSE| Simulation step         Convergence     Electron number  ETRS Iterations
 RTBSE|            2110     0.33041823E-007     0.10000000E+002                6
 RTBSE| Simulation step         Convergence     Electron number  ETRS Iterations
 RTBSE|            2111     0.33842514E-007     0.10000000E+002                6
 RTBSE| Simulation step         Convergence     Electron number  ETRS Iterations
 RTBSE|            2112     0.36400939E-007     0.10000000E+002                6
 RTBSE| Simulation step         Convergence     Electron number  ETRS Iterations
 RTBSE|            2113     0.41993472E-007     0.10000000E+002                6
 RTBSE| Simulation step         Convergence     Electron number  ETRS Iterations
 RTBSE|            2114     0.51395042E-007     0.10000000E+002                6
 RTBSE| Simulation step         Convergence     Electron number  ETRS Iterations
 RTBSE|            2115     0.64814610E-007     0.10000000E+002                6
 RTBSE| Simulation step         Convergence     Electron number  ETRS Iterations
 RTBSE|            2116     0.81748586E-007     0.10000000E+002                6
 RTBSE| Simulation step         Convergence     Electron number  ETRS Iterations
 RTBSE|            2117     0.17641423E-007     0.10000000E+002                7
 RTBSE| Simulation step         Convergence     Electron number  ETRS Iterations
 RTBSE|            2118     0.21497095E-007     0.10000000E+002                7
 RTBSE| Simulation step         Convergence     Electron number  ETRS Iterations
 RTBSE|            2119     0.25115419E-007     0.10000000E+002                7
 RTBSE| Simulation step         Convergence     Electron number  ETRS Iterations
 RTBSE|            2120     0.28065675E-007     0.10000000E+002                7
 RTBSE| Simulation step         Convergence     Electron number  ETRS Iterations
 RTBSE|            2121     0.29956195E-007     0.10000000E+002                7
 RTBSE| Simulation step         Convergence     Electron number  ETRS Iterations
 RTBSE|            2122     0.30558134E-007     0.10000000E+002                7
 RTBSE| Simulation step         Convergence     Electron number  ETRS Iterations
 RTBSE|            2123     0.29773638E-007     0.10000000E+002                7
 RTBSE| Simulation step         Convergence     Electron number  ETRS Iterations
 RTBSE|            2124     0.27693849E-007     0.10000000E+002                7
 RTBSE| Simulation step         Convergence     Electron number  ETRS Iterations
 RTBSE|            2125     0.24526765E-007     0.10000000E+002                7
 RTBSE| Simulation step         Convergence     Electron number  ETRS Iterations
 RTBSE|            2126     0.20622799E-007     0.10000000E+002                7
 RTBSE| Simulation step         Convergence     Electron number  ETRS Iterations
 RTBSE|            2127     0.16349875E-007     0.10000000E+002                7
 RTBSE| Simulation step         Convergence     Electron number  ETRS Iterations
 RTBSE|            2128     0.96650293E-007     0.10000000E+002                6
 RTBSE| Simulation step         Convergence     Electron number  ETRS Iterations
 RTBSE|            2129     0.75612395E-007     0.10000000E+002                6
 RTBSE| Simulation step         Convergence     Electron number  ETRS Iterations
 RTBSE|            2130     0.55931999E-007     0.10000000E+002                6
 RTBSE| Simulation step         Convergence     Electron number  ETRS Iterations
 RTBSE|            2131     0.38865188E-007     0.10000000E+002                6
 RTBSE| Simulation step         Convergence     Electron number  ETRS Iterations
 RTBSE|            2132     0.25132964E-007     0.10000000E+002                6
 RTBSE| Simulation step         Convergence     Electron number  ETRS Iterations
 RTBSE|            2133     0.16971780E-007     0.10000000E+002                6
 RTBSE| Simulation step         Convergence     Electron number  ETRS Iterations
 RTBSE|            2134     0.19798119E-007     0.10000000E+002                6
 RTBSE| Simulation step         Convergence     Electron number  ETRS Iterations
 RTBSE|            2135     0.21705681E-007     0.10000000E+002                6
 RTBSE| Simulation step         Convergence     Electron number  ETRS Iterations
 RTBSE|            2136     0.23263298E-007     0.10000000E+002                6
 RTBSE| Simulation step         Convergence     Electron number  ETRS Iterations
 RTBSE|            2137     0.25360249E-007     0.10000000E+002                6
 RTBSE| Simulation step         Convergence     Electron number  ETRS Iterations
 RTBSE|            2138     0.28875791E-007     0.10000000E+002                6
 RTBSE| Simulation step         Convergence     Electron number  ETRS Iterations
 RTBSE|            2139     0.34352461E-007     0.10000000E+002                6
 RTBSE| Simulation step         Convergence     Electron number  ETRS Iterations
 RTBSE|            2140     0.42078014E-007     0.10000000E+002                6
 RTBSE| Simulation step         Convergence     Electron number  ETRS Iterations
 RTBSE|            2141     0.51826216E-007     0.10000000E+002                6
 RTBSE| Simulation step         Convergence     Electron number  ETRS Iterations
 RTBSE|            2142     0.63097634E-007     0.10000000E+002                6
 RTBSE| Simulation step         Convergence     Electron number  ETRS Iterations
 RTBSE|            2143     0.75076798E-007     0.10000000E+002                6
 RTBSE| Simulation step         Convergence     Electron number  ETRS Iterations
 RTBSE|            2144     0.86701079E-007     0.10000000E+002                6
 RTBSE| Simulation step         Convergence     Electron number  ETRS Iterations
 RTBSE|            2145     0.96910490E-007     0.10000000E+002                6
 RTBSE| Simulation step         Convergence     Electron number  ETRS Iterations
 RTBSE|            2146     0.17966123E-007     0.10000000E+002                7
 RTBSE| Simulation step         Convergence     Electron number  ETRS Iterations
 RTBSE|            2147     0.18946142E-007     0.10000000E+002                7
 RTBSE| Simulation step         Convergence     Electron number  ETRS Iterations
 RTBSE|            2148     0.19214443E-007     0.10000000E+002                7
 RTBSE| Simulation step         Convergence     Electron number  ETRS Iterations
 RTBSE|            2149     0.18699929E-007     0.10000000E+002                7
 RTBSE| Simulation step         Convergence     Electron number  ETRS Iterations
 RTBSE|            2150     0.17387536E-007     0.10000000E+002                7
 RTBSE| Simulation step         Convergence     Electron number  ETRS Iterations
 RTBSE|            2151     0.15341539E-007     0.10000000E+002                7
 RTBSE| Simulation step         Convergence     Electron number  ETRS Iterations
 RTBSE|            2152     0.90893018E-007     0.10000000E+002                6
 RTBSE| Simulation step         Convergence     Electron number  ETRS Iterations
 RTBSE|            2153     0.78075691E-007     0.10000000E+002                6
 RTBSE| Simulation step         Convergence     Electron number  ETRS Iterations
 RTBSE|            2154     0.63727327E-007     0.10000000E+002                6
 RTBSE| Simulation step         Convergence     Electron number  ETRS Iterations
 RTBSE|            2155     0.49134541E-007     0.10000000E+002                6
 RTBSE| Simulation step         Convergence     Electron number  ETRS Iterations
 RTBSE|            2156     0.35579340E-007     0.10000000E+002                6
 RTBSE| Simulation step         Convergence     Electron number  ETRS Iterations
 RTBSE|            2157     0.24077758E-007     0.10000000E+002                6
 RTBSE| Simulation step         Convergence     Electron number  ETRS Iterations
 RTBSE|            2158     0.19256621E-007     0.10000000E+002                6
 RTBSE| Simulation step         Convergence     Electron number  ETRS Iterations
 RTBSE|            2159     0.22107348E-007     0.10000000E+002                6
 RTBSE| Simulation step         Convergence     Electron number  ETRS Iterations
 RTBSE|            2160     0.23909083E-007     0.10000000E+002                6
 RTBSE| Simulation step         Convergence     Electron number  ETRS Iterations
 RTBSE|            2161     0.25388044E-007     0.10000000E+002                6
 RTBSE| Simulation step         Convergence     Electron number  ETRS Iterations
 RTBSE|            2162     0.27642764E-007     0.10000000E+002                6
 RTBSE| Simulation step         Convergence     Electron number  ETRS Iterations
 RTBSE|            2163     0.31891448E-007     0.10000000E+002                6
 RTBSE| Simulation step         Convergence     Electron number  ETRS Iterations
 RTBSE|            2164     0.39116900E-007     0.10000000E+002                6
 RTBSE| Simulation step         Convergence     Electron number  ETRS Iterations
 RTBSE|            2165     0.50077839E-007     0.10000000E+002                6
 RTBSE| Simulation step         Convergence     Electron number  ETRS Iterations
 RTBSE|            2166     0.64895326E-007     0.10000000E+002                6
 RTBSE| Simulation step         Convergence     Electron number  ETRS Iterations
 RTBSE|            2167     0.82966357E-007     0.10000000E+002                6
 RTBSE| Simulation step         Convergence     Electron number  ETRS Iterations
 RTBSE|            2168     0.17962528E-007     0.10000000E+002                7
 RTBSE| Simulation step         Convergence     Electron number  ETRS Iterations
 RTBSE|            2169     0.21917733E-007     0.10000000E+002                7
 RTBSE| Simulation step         Convergence     Electron number  ETRS Iterations
 RTBSE|            2170     0.25589210E-007     0.10000000E+002                7
 RTBSE| Simulation step         Convergence     Electron number  ETRS Iterations
 RTBSE|            2171     0.28538611E-007     0.10000000E+002                7
 RTBSE| Simulation step         Convergence     Electron number  ETRS Iterations
 RTBSE|            2172     0.30443016E-007     0.10000000E+002                7
 RTBSE| Simulation step         Convergence     Electron number  ETRS Iterations
 RTBSE|            2173     0.31063739E-007     0.10000000E+002                7
 RTBSE| Simulation step         Convergence     Electron number  ETRS Iterations
 RTBSE|            2174     0.30320509E-007     0.10000000E+002                7
 RTBSE| Simulation step         Convergence     Electron number  ETRS Iterations
 RTBSE|            2175     0.28320330E-007     0.10000000E+002                7
 RTBSE| Simulation step         Convergence     Electron number  ETRS Iterations
 RTBSE|            2176     0.25254284E-007     0.10000000E+002                7
 RTBSE| Simulation step         Convergence     Electron number  ETRS Iterations
 RTBSE|            2177     0.21455258E-007     0.10000000E+002                7
 RTBSE| Simulation step         Convergence     Electron number  ETRS Iterations
 RTBSE|            2178     0.17279904E-007     0.10000000E+002                7
 RTBSE| Simulation step         Convergence     Electron number  ETRS Iterations
 RTBSE|            2179     0.13063958E-007     0.10000000E+002                7
 RTBSE| Simulation step         Convergence     Electron number  ETRS Iterations
 RTBSE|            2180     0.80628377E-007     0.10000000E+002                6
 RTBSE| Simulation step         Convergence     Electron number  ETRS Iterations
 RTBSE|            2181     0.61266287E-007     0.10000000E+002                6
 RTBSE| Simulation step         Convergence     Electron number  ETRS Iterations
 RTBSE|            2182     0.44269271E-007     0.10000000E+002                6
 RTBSE| Simulation step         Convergence     Electron number  ETRS Iterations
 RTBSE|            2183     0.30345394E-007     0.10000000E+002                6
 RTBSE| Simulation step         Convergence     Electron number  ETRS Iterations
 RTBSE|            2184     0.19742277E-007     0.10000000E+002                6
 RTBSE| Simulation step         Convergence     Electron number  ETRS Iterations
 RTBSE|            2185     0.16781365E-007     0.10000000E+002                6
 RTBSE| Simulation step         Convergence     Electron number  ETRS Iterations
 RTBSE|            2186     0.19023029E-007     0.10000000E+002                6
 RTBSE| Simulation step         Convergence     Electron number  ETRS Iterations
 RTBSE|            2187     0.21088244E-007     0.10000000E+002                6
 RTBSE| Simulation step         Convergence     Electron number  ETRS Iterations
 RTBSE|            2188     0.23684472E-007     0.10000000E+002                6
 RTBSE| Simulation step         Convergence     Electron number  ETRS Iterations
 RTBSE|            2189     0.27549065E-007     0.10000000E+002                6
 RTBSE| Simulation step         Convergence     Electron number  ETRS Iterations
 RTBSE|            2190     0.33217000E-007     0.10000000E+002                6
 RTBSE| Simulation step         Convergence     Electron number  ETRS Iterations
 RTBSE|            2191     0.40908546E-007     0.10000000E+002                6
 RTBSE| Simulation step         Convergence     Electron number  ETRS Iterations
 RTBSE|            2192     0.50445997E-007     0.10000000E+002                6
 RTBSE| Simulation step         Convergence     Electron number  ETRS Iterations
 RTBSE|            2193     0.61411466E-007     0.10000000E+002                6
 RTBSE| Simulation step         Convergence     Electron number  ETRS Iterations
 RTBSE|            2194     0.73036430E-007     0.10000000E+002                6
 RTBSE| Simulation step         Convergence     Electron number  ETRS Iterations
 RTBSE|            2195     0.84333301E-007     0.10000000E+002                6
 RTBSE| Simulation step         Convergence     Electron number  ETRS Iterations
 RTBSE|            2196     0.94299298E-007     0.10000000E+002                6
 RTBSE| Simulation step         Convergence     Electron number  ETRS Iterations
 RTBSE|            2197     0.17447808E-007     0.10000000E+002                7
 RTBSE| Simulation step         Convergence     Electron number  ETRS Iterations
 RTBSE|            2198     0.18436419E-007     0.10000000E+002                7
 RTBSE| Simulation step         Convergence     Electron number  ETRS Iterations
 RTBSE|            2199     0.18788861E-007     0.10000000E+002                7
 RTBSE| Simulation step         Convergence     Electron number  ETRS Iterations
 RTBSE|            2200     0.18415247E-007     0.10000000E+002                7
 RTBSE| Simulation step         Convergence     Electron number  ETRS Iterations
 RTBSE|            2201     0.17314809E-007     0.10000000E+002                7
 RTBSE| Simulation step         Convergence     Electron number  ETRS Iterations
 RTBSE|            2202     0.15560159E-007     0.10000000E+002                7
 RTBSE| Simulation step         Convergence     Electron number  ETRS Iterations
 RTBSE|            2203     0.91294765E-007     0.10000000E+002                6
 RTBSE| Simulation step         Convergence     Electron number  ETRS Iterations
 RTBSE|            2204     0.80424970E-007     0.10000000E+002                6
 RTBSE| Simulation step         Convergence     Electron number  ETRS Iterations
 RTBSE|            2205     0.68199297E-007     0.10000000E+002                6
 RTBSE| Simulation step         Convergence     Electron number  ETRS Iterations
 RTBSE|            2206     0.55673552E-007     0.10000000E+002                6
 RTBSE| Simulation step         Convergence     Electron number  ETRS Iterations
 RTBSE|            2207     0.43935696E-007     0.10000000E+002                6
 RTBSE| Simulation step         Convergence     Electron number  ETRS Iterations
 RTBSE|            2208     0.33823165E-007     0.10000000E+002                6
 RTBSE| Simulation step         Convergence     Electron number  ETRS Iterations
 RTBSE|            2209     0.25865217E-007     0.10000000E+002                6
 RTBSE| Simulation step         Convergence     Electron number  ETRS Iterations
 RTBSE|            2210     0.20142604E-007     0.10000000E+002                6
 RTBSE| Simulation step         Convergence     Electron number  ETRS Iterations
 RTBSE|            2211     0.18443534E-007     0.10000000E+002                6
 RTBSE| Simulation step         Convergence     Electron number  ETRS Iterations
 RTBSE|            2212     0.20989901E-007     0.10000000E+002                6
 RTBSE| Simulation step         Convergence     Electron number  ETRS Iterations
 RTBSE|            2213     0.24656755E-007     0.10000000E+002                6
 RTBSE| Simulation step         Convergence     Electron number  ETRS Iterations
 RTBSE|            2214     0.30347921E-007     0.10000000E+002                6
 RTBSE| Simulation step         Convergence     Electron number  ETRS Iterations
 RTBSE|            2215     0.39071560E-007     0.10000000E+002                6
 RTBSE| Simulation step         Convergence     Electron number  ETRS Iterations
 RTBSE|            2216     0.51339045E-007     0.10000000E+002                6
 RTBSE| Simulation step         Convergence     Electron number  ETRS Iterations
 RTBSE|            2217     0.67109107E-007     0.10000000E+002                6
 RTBSE| Simulation step         Convergence     Electron number  ETRS Iterations
 RTBSE|            2218     0.85768032E-007     0.10000000E+002                6
 RTBSE| Simulation step         Convergence     Electron number  ETRS Iterations
 RTBSE|            2219     0.18518738E-007     0.10000000E+002                7
 RTBSE| Simulation step         Convergence     Electron number  ETRS Iterations
 RTBSE|            2220     0.22437559E-007     0.10000000E+002                7
 RTBSE| Simulation step         Convergence     Electron number  ETRS Iterations
 RTBSE|            2221     0.26030069E-007     0.10000000E+002                7
 RTBSE| Simulation step         Convergence     Electron number  ETRS Iterations
 RTBSE|            2222     0.28872259E-007     0.10000000E+002                7
 RTBSE| Simulation step         Convergence     Electron number  ETRS Iterations
 RTBSE|            2223     0.30660899E-007     0.10000000E+002                7
 RTBSE| Simulation step         Convergence     Electron number  ETRS Iterations
 RTBSE|            2224     0.31194951E-007     0.10000000E+002                7
 RTBSE| Simulation step         Convergence     Electron number  ETRS Iterations
 RTBSE|            2225     0.30429521E-007     0.10000000E+002                7
 RTBSE| Simulation step         Convergence     Electron number  ETRS Iterations
 RTBSE|            2226     0.28437023E-007     0.10000000E+002                7
 RTBSE| Simulation step         Convergence     Electron number  ETRS Iterations
 RTBSE|            2227     0.25446720E-007     0.10000000E+002                7
 RTBSE| Simulation step         Convergence     Electron number  ETRS Iterations
 RTBSE|            2228     0.21751236E-007     0.10000000E+002                7
 RTBSE| Simulation step         Convergence     Electron number  ETRS Iterations
 RTBSE|            2229     0.17692583E-007     0.10000000E+002                7
 RTBSE| Simulation step         Convergence     Electron number  ETRS Iterations
 RTBSE|            2230     0.13631117E-007     0.10000000E+002                7
 RTBSE| Simulation step         Convergence     Electron number  ETRS Iterations
 RTBSE|            2231     0.82960181E-007     0.10000000E+002                6
 RTBSE| Simulation step         Convergence     Electron number  ETRS Iterations
 RTBSE|            2232     0.64342213E-007     0.10000000E+002                6
 RTBSE| Simulation step         Convergence     Electron number  ETRS Iterations
 RTBSE|            2233     0.48080140E-007     0.10000000E+002                6
 RTBSE| Simulation step         Convergence     Electron number  ETRS Iterations
 RTBSE|            2234     0.34829666E-007     0.10000000E+002                6
 RTBSE| Simulation step         Convergence     Electron number  ETRS Iterations
 RTBSE|            2235     0.24783795E-007     0.10000000E+002                6
 RTBSE| Simulation step         Convergence     Electron number  ETRS Iterations
 RTBSE|            2236     0.17601157E-007     0.10000000E+002                6
 RTBSE| Simulation step         Convergence     Electron number  ETRS Iterations
 RTBSE|            2237     0.14734135E-007     0.10000000E+002                6
 RTBSE| Simulation step         Convergence     Electron number  ETRS Iterations
 RTBSE|            2238     0.16894664E-007     0.10000000E+002                6
 RTBSE| Simulation step         Convergence     Electron number  ETRS Iterations
 RTBSE|            2239     0.19827994E-007     0.10000000E+002                6
 RTBSE| Simulation step         Convergence     Electron number  ETRS Iterations
 RTBSE|            2240     0.24183433E-007     0.10000000E+002                6
 RTBSE| Simulation step         Convergence     Electron number  ETRS Iterations
 RTBSE|            2241     0.30366195E-007     0.10000000E+002                6
 RTBSE| Simulation step         Convergence     Electron number  ETRS Iterations
 RTBSE|            2242     0.38554809E-007     0.10000000E+002                6
 RTBSE| Simulation step         Convergence     Electron number  ETRS Iterations
 RTBSE|            2243     0.48579820E-007     0.10000000E+002                6
 RTBSE| Simulation step         Convergence     Electron number  ETRS Iterations
 RTBSE|            2244     0.59873942E-007     0.10000000E+002                6
 RTBSE| Simulation step         Convergence     Electron number  ETRS Iterations
 RTBSE|            2245     0.71734012E-007     0.10000000E+002                6
 RTBSE| Simulation step         Convergence     Electron number  ETRS Iterations
 RTBSE|            2246     0.83195940E-007     0.10000000E+002                6
 RTBSE| Simulation step         Convergence     Electron number  ETRS Iterations
 RTBSE|            2247     0.93328424E-007     0.10000000E+002                6
 RTBSE| Simulation step         Convergence     Electron number  ETRS Iterations
 RTBSE|            2248     0.17244041E-007     0.10000000E+002                7
 RTBSE| Simulation step         Convergence     Electron number  ETRS Iterations
 RTBSE|            2249     0.18288095E-007     0.10000000E+002                7
 RTBSE| Simulation step         Convergence     Electron number  ETRS Iterations
 RTBSE|            2250     0.18694844E-007     0.10000000E+002                7
 RTBSE| Simulation step         Convergence     Electron number  ETRS Iterations
 RTBSE|            2251     0.18415854E-007     0.10000000E+002                7
 RTBSE| Simulation step         Convergence     Electron number  ETRS Iterations
 RTBSE|            2252     0.17470638E-007     0.10000000E+002                7
 RTBSE| Simulation step         Convergence     Electron number  ETRS Iterations
 RTBSE|            2253     0.15901004E-007     0.10000000E+002                7
 RTBSE| Simulation step         Convergence     Electron number  ETRS Iterations
 RTBSE|            2254     0.92992239E-007     0.10000000E+002                6
 RTBSE| Simulation step         Convergence     Electron number  ETRS Iterations
 RTBSE|            2255     0.82901969E-007     0.10000000E+002                6
 RTBSE| Simulation step         Convergence     Electron number  ETRS Iterations
 RTBSE|            2256     0.72112850E-007     0.10000000E+002                6
 RTBSE| Simulation step         Convergence     Electron number  ETRS Iterations
 RTBSE|            2257     0.60982371E-007     0.10000000E+002                6
 RTBSE| Simulation step         Convergence     Electron number  ETRS Iterations
 RTBSE|            2258     0.50433100E-007     0.10000000E+002                6
 RTBSE| Simulation step         Convergence     Electron number  ETRS Iterations
 RTBSE|            2259     0.41206452E-007     0.10000000E+002                6
 RTBSE| Simulation step         Convergence     Electron number  ETRS Iterations
 RTBSE|            2260     0.33762784E-007     0.10000000E+002                6
 RTBSE| Simulation step         Convergence     Electron number  ETRS Iterations
 RTBSE|            2261     0.28130713E-007     0.10000000E+002                6
 RTBSE| Simulation step         Convergence     Electron number  ETRS Iterations
 RTBSE|            2262     0.23967796E-007     0.10000000E+002                6
 RTBSE| Simulation step         Convergence     Electron number  ETRS Iterations
 RTBSE|            2263     0.20481121E-007     0.10000000E+002                6
 RTBSE| Simulation step         Convergence     Electron number  ETRS Iterations
 RTBSE|            2264     0.22053867E-007     0.10000000E+002                6
 RTBSE| Simulation step         Convergence     Electron number  ETRS Iterations
 RTBSE|            2265     0.28537869E-007     0.10000000E+002                6
 RTBSE| Simulation step         Convergence     Electron number  ETRS Iterations
 RTBSE|            2266     0.38075578E-007     0.10000000E+002                6
 RTBSE| Simulation step         Convergence     Electron number  ETRS Iterations
 RTBSE|            2267     0.51146105E-007     0.10000000E+002                6
 RTBSE| Simulation step         Convergence     Electron number  ETRS Iterations
 RTBSE|            2268     0.67583961E-007     0.10000000E+002                6
 RTBSE| Simulation step         Convergence     Electron number  ETRS Iterations
 RTBSE|            2269     0.86607697E-007     0.10000000E+002                6
 RTBSE| Simulation step         Convergence     Electron number  ETRS Iterations
 RTBSE|            2270     0.18696163E-007     0.10000000E+002                7
 RTBSE| Simulation step         Convergence     Electron number  ETRS Iterations
 RTBSE|            2271     0.22585395E-007     0.10000000E+002                7
 RTBSE| Simulation step         Convergence     Electron number  ETRS Iterations
 RTBSE|            2272     0.26091754E-007     0.10000000E+002                7
 RTBSE| Simulation step         Convergence     Electron number  ETRS Iterations
 RTBSE|            2273     0.28837451E-007     0.10000000E+002                7
 RTBSE| Simulation step         Convergence     Electron number  ETRS Iterations
 RTBSE|            2274     0.30542260E-007     0.10000000E+002                7
 RTBSE| Simulation step         Convergence     Electron number  ETRS Iterations
 RTBSE|            2275     0.31019896E-007     0.10000000E+002                7
 RTBSE| Simulation step         Convergence     Electron number  ETRS Iterations
 RTBSE|            2276     0.30240993E-007     0.10000000E+002                7
 RTBSE| Simulation step         Convergence     Electron number  ETRS Iterations
 RTBSE|            2277     0.28294145E-007     0.10000000E+002                7
 RTBSE| Simulation step         Convergence     Electron number  ETRS Iterations
 RTBSE|            2278     0.25405794E-007     0.10000000E+002                7
 RTBSE| Simulation step         Convergence     Electron number  ETRS Iterations
 RTBSE|            2279     0.21886771E-007     0.10000000E+002                7
 RTBSE| Simulation step         Convergence     Electron number  ETRS Iterations
 RTBSE|            2280     0.18048935E-007     0.10000000E+002                7
 RTBSE| Simulation step         Convergence     Electron number  ETRS Iterations
 RTBSE|            2281     0.14216315E-007     0.10000000E+002                7
 RTBSE| Simulation step         Convergence     Electron number  ETRS Iterations
 RTBSE|            2282     0.85172043E-007     0.10000000E+002                6
 RTBSE| Simulation step         Convergence     Electron number  ETRS Iterations
 RTBSE|            2283     0.68100514E-007     0.10000000E+002                6
 RTBSE| Simulation step         Convergence     Electron number  ETRS Iterations
 RTBSE|            2284     0.53335948E-007     0.10000000E+002                6
 RTBSE| Simulation step         Convergence     Electron number  ETRS Iterations
 RTBSE|            2285     0.41397410E-007     0.10000000E+002                6
 RTBSE| Simulation step         Convergence     Electron number  ETRS Iterations
 RTBSE|            2286     0.32354604E-007     0.10000000E+002                6
 RTBSE| Simulation step         Convergence     Electron number  ETRS Iterations
 RTBSE|            2287     0.25788372E-007     0.10000000E+002                6
 RTBSE| Simulation step         Convergence     Electron number  ETRS Iterations
 RTBSE|            2288     0.21043923E-007     0.10000000E+002                6
 RTBSE| Simulation step         Convergence     Electron number  ETRS Iterations
 RTBSE|            2289     0.17208532E-007     0.10000000E+002                6
 RTBSE| Simulation step         Convergence     Electron number  ETRS Iterations
 RTBSE|            2290     0.15566092E-007     0.10000000E+002                6
 RTBSE| Simulation step         Convergence     Electron number  ETRS Iterations
 RTBSE|            2291     0.20492250E-007     0.10000000E+002                6
 RTBSE| Simulation step         Convergence     Electron number  ETRS Iterations
 RTBSE|            2292     0.27607450E-007     0.10000000E+002                6
 RTBSE| Simulation step         Convergence     Electron number  ETRS Iterations
 RTBSE|            2293     0.36822342E-007     0.10000000E+002                6
 RTBSE| Simulation step         Convergence     Electron number  ETRS Iterations
 RTBSE|            2294     0.47810593E-007     0.10000000E+002                6
 RTBSE| Simulation step         Convergence     Electron number  ETRS Iterations
 RTBSE|            2295     0.59956386E-007     0.10000000E+002                6
 RTBSE| Simulation step         Convergence     Electron number  ETRS Iterations
 RTBSE|            2296     0.72458759E-007     0.10000000E+002                6
 RTBSE| Simulation step         Convergence     Electron number  ETRS Iterations
 RTBSE|            2297     0.84367700E-007     0.10000000E+002                6
 RTBSE| Simulation step         Convergence     Electron number  ETRS Iterations
 RTBSE|            2298     0.94683897E-007     0.10000000E+002                6
 RTBSE| Simulation step         Convergence     Electron number  ETRS Iterations
 RTBSE|            2299     0.17417413E-007     0.10000000E+002                7
 RTBSE| Simulation step         Convergence     Electron number  ETRS Iterations
 RTBSE|            2300     0.18448949E-007     0.10000000E+002                7
 RTBSE| Simulation step         Convergence     Electron number  ETRS Iterations
 RTBSE|            2301     0.18853116E-007     0.10000000E+002                7
 RTBSE| Simulation step         Convergence     Electron number  ETRS Iterations
 RTBSE|            2302     0.18599774E-007     0.10000000E+002                7
 RTBSE| Simulation step         Convergence     Electron number  ETRS Iterations
 RTBSE|            2303     0.17687477E-007     0.10000000E+002                7
 RTBSE| Simulation step         Convergence     Electron number  ETRS Iterations
 RTBSE|            2304     0.16184931E-007     0.10000000E+002                7
 RTBSE| Simulation step         Convergence     Electron number  ETRS Iterations
 RTBSE|            2305     0.94270605E-007     0.10000000E+002                6
 RTBSE| Simulation step         Convergence     Electron number  ETRS Iterations
 RTBSE|            2306     0.84393649E-007     0.10000000E+002                6
 RTBSE| Simulation step         Convergence     Electron number  ETRS Iterations
 RTBSE|            2307     0.74481747E-007     0.10000000E+002                6
 RTBSE| Simulation step         Convergence     Electron number  ETRS Iterations
 RTBSE|            2308     0.64325307E-007     0.10000000E+002                6
 RTBSE| Simulation step         Convergence     Electron number  ETRS Iterations
 RTBSE|            2309     0.54777947E-007     0.10000000E+002                6
 RTBSE| Simulation step         Convergence     Electron number  ETRS Iterations
 RTBSE|            2310     0.46469613E-007     0.10000000E+002                6
 RTBSE| Simulation step         Convergence     Electron number  ETRS Iterations
 RTBSE|            2311     0.39736902E-007     0.10000000E+002                6
 RTBSE| Simulation step         Convergence     Electron number  ETRS Iterations
 RTBSE|            2312     0.34545046E-007     0.10000000E+002                6
 RTBSE| Simulation step         Convergence     Electron number  ETRS Iterations
 RTBSE|            2313     0.30502237E-007     0.10000000E+002                6
 RTBSE| Simulation step         Convergence     Electron number  ETRS Iterations
 RTBSE|            2314     0.26805008E-007     0.10000000E+002                6
 RTBSE| Simulation step         Convergence     Electron number  ETRS Iterations
 RTBSE|            2315     0.22423616E-007     0.10000000E+002                6
 RTBSE| Simulation step         Convergence     Electron number  ETRS Iterations
 RTBSE|            2316     0.25985923E-007     0.10000000E+002                6
 RTBSE| Simulation step         Convergence     Electron number  ETRS Iterations
 RTBSE|            2317     0.36094412E-007     0.10000000E+002                6
 RTBSE| Simulation step         Convergence     Electron number  ETRS Iterations
 RTBSE|            2318     0.49854722E-007     0.10000000E+002                6
 RTBSE| Simulation step         Convergence     Electron number  ETRS Iterations
 RTBSE|            2319     0.66945675E-007     0.10000000E+002                6
 RTBSE| Simulation step         Convergence     Electron number  ETRS Iterations
 RTBSE|            2320     0.86439615E-007     0.10000000E+002                6
 RTBSE| Simulation step         Convergence     Electron number  ETRS Iterations
 RTBSE|            2321     0.18672637E-007     0.10000000E+002                7
 RTBSE| Simulation step         Convergence     Electron number  ETRS Iterations
 RTBSE|            2322     0.22551569E-007     0.10000000E+002                7
 RTBSE| Simulation step         Convergence     Electron number  ETRS Iterations
 RTBSE|            2323     0.25985082E-007     0.10000000E+002                7
 RTBSE| Simulation step         Convergence     Electron number  ETRS Iterations
 RTBSE|            2324     0.28673088E-007     0.10000000E+002                7
 RTBSE| Simulation step         Convergence     Electron number  ETRS Iterations
 RTBSE|            2325     0.30305390E-007     0.10000000E+002                7
 RTBSE| Simulation step         Convergence     Electron number  ETRS Iterations
 RTBSE|            2326     0.30761453E-007     0.10000000E+002                7
 RTBSE| Simulation step         Convergence     Electron number  ETRS Iterations
 RTBSE|            2327     0.30008287E-007     0.10000000E+002                7
 RTBSE| Simulation step         Convergence     Electron number  ETRS Iterations
 RTBSE|            2328     0.28189218E-007     0.10000000E+002                7
 RTBSE| Simulation step         Convergence     Electron number  ETRS Iterations
 RTBSE|            2329     0.25506453E-007     0.10000000E+002                7
 RTBSE| Simulation step         Convergence     Electron number  ETRS Iterations
 RTBSE|            2330     0.22250403E-007     0.10000000E+002                7
 RTBSE| Simulation step         Convergence     Electron number  ETRS Iterations
 RTBSE|            2331     0.18723659E-007     0.10000000E+002                7
 RTBSE| Simulation step         Convergence     Electron number  ETRS Iterations
 RTBSE|            2332     0.15212696E-007     0.10000000E+002                7
 RTBSE| Simulation step         Convergence     Electron number  ETRS Iterations
 RTBSE|            2333     0.89918090E-007     0.10000000E+002                6
 RTBSE| Simulation step         Convergence     Electron number  ETRS Iterations
 RTBSE|            2334     0.74622151E-007     0.10000000E+002                6
 RTBSE| Simulation step         Convergence     Electron number  ETRS Iterations
 RTBSE|            2335     0.61334650E-007     0.10000000E+002                6
 RTBSE| Simulation step         Convergence     Electron number  ETRS Iterations
 RTBSE|            2336     0.50459678E-007     0.10000000E+002                6
 RTBSE| Simulation step         Convergence     Electron number  ETRS Iterations
 RTBSE|            2337     0.41933579E-007     0.10000000E+002                6
 RTBSE| Simulation step         Convergence     Electron number  ETRS Iterations
 RTBSE|            2338     0.35341814E-007     0.10000000E+002                6
 RTBSE| Simulation step         Convergence     Electron number  ETRS Iterations
 RTBSE|            2339     0.30005282E-007     0.10000000E+002                6
 RTBSE| Simulation step         Convergence     Electron number  ETRS Iterations
 RTBSE|            2340     0.25094217E-007     0.10000000E+002                6
 RTBSE| Simulation step         Convergence     Electron number  ETRS Iterations
 RTBSE|            2341     0.19799680E-007     0.10000000E+002                6
 RTBSE| Simulation step         Convergence     Electron number  ETRS Iterations
 RTBSE|            2342     0.19376951E-007     0.10000000E+002                6
 RTBSE| Simulation step         Convergence     Electron number  ETRS Iterations
 RTBSE|            2343     0.27460573E-007     0.10000000E+002                6
 RTBSE| Simulation step         Convergence     Electron number  ETRS Iterations
 RTBSE|            2344     0.37795294E-007     0.10000000E+002                6
 RTBSE| Simulation step         Convergence     Electron number  ETRS Iterations
 RTBSE|            2345     0.49739327E-007     0.10000000E+002                6
 RTBSE| Simulation step         Convergence     Electron number  ETRS Iterations
 RTBSE|            2346     0.62509373E-007     0.10000000E+002                6
 RTBSE| Simulation step         Convergence     Electron number  ETRS Iterations
 RTBSE|            2347     0.75228672E-007     0.10000000E+002                6
 RTBSE| Simulation step         Convergence     Electron number  ETRS Iterations
 RTBSE|            2348     0.86980167E-007     0.10000000E+002                6
 RTBSE| Simulation step         Convergence     Electron number  ETRS Iterations
 RTBSE|            2349     0.96860918E-007     0.10000000E+002                6
 RTBSE| Simulation step         Convergence     Electron number  ETRS Iterations
 RTBSE|            2350     0.17659297E-007     0.10000000E+002                7
 RTBSE| Simulation step         Convergence     Electron number  ETRS Iterations
 RTBSE|            2351     0.18572470E-007     0.10000000E+002                7
 RTBSE| Simulation step         Convergence     Electron number  ETRS Iterations
 RTBSE|            2352     0.18857153E-007     0.10000000E+002                7
 RTBSE| Simulation step         Convergence     Electron number  ETRS Iterations
 RTBSE|            2353     0.18492215E-007     0.10000000E+002                7
 RTBSE| Simulation step         Convergence     Electron number  ETRS Iterations
 RTBSE|            2354     0.17522389E-007     0.10000000E+002                7
 RTBSE| Simulation step         Convergence     Electron number  ETRS Iterations
 RTBSE|            2355     0.16033007E-007     0.10000000E+002                7
 RTBSE| Simulation step         Convergence     Electron number  ETRS Iterations
 RTBSE|            2356     0.92976137E-007     0.10000000E+002                6
 RTBSE| Simulation step         Convergence     Electron number  ETRS Iterations
 RTBSE|            2357     0.83270585E-007     0.10000000E+002                6
 RTBSE| Simulation step         Convergence     Electron number  ETRS Iterations
 RTBSE|            2358     0.74188845E-007     0.10000000E+002                6
 RTBSE| Simulation step         Convergence     Electron number  ETRS Iterations
 RTBSE|            2359     0.65079430E-007     0.10000000E+002                6
 RTBSE| Simulation step         Convergence     Electron number  ETRS Iterations
 RTBSE|            2360     0.56749287E-007     0.10000000E+002                6
 RTBSE| Simulation step         Convergence     Electron number  ETRS Iterations
 RTBSE|            2361     0.49718644E-007     0.10000000E+002                6
 RTBSE| Simulation step         Convergence     Electron number  ETRS Iterations
 RTBSE|            2362     0.44200690E-007     0.10000000E+002                6
 RTBSE| Simulation step         Convergence     Electron number  ETRS Iterations
 RTBSE|            2363     0.39997638E-007     0.10000000E+002                6
 RTBSE| Simulation step         Convergence     Electron number  ETRS Iterations
 RTBSE|            2364     0.36589426E-007     0.10000000E+002                6
 RTBSE| Simulation step         Convergence     Electron number  ETRS Iterations
 RTBSE|            2365     0.33150162E-007     0.10000000E+002                6
 RTBSE| Simulation step         Convergence     Electron number  ETRS Iterations
 RTBSE|            2366     0.28619436E-007     0.10000000E+002                6
 RTBSE| Simulation step         Convergence     Electron number  ETRS Iterations
 RTBSE|            2367     0.23037553E-007     0.10000000E+002                6
 RTBSE| Simulation step         Convergence     Electron number  ETRS Iterations
 RTBSE|            2368     0.33183844E-007     0.10000000E+002                6
 RTBSE| Simulation step         Convergence     Electron number  ETRS Iterations
 RTBSE|            2369     0.47435563E-007     0.10000000E+002                6
 RTBSE| Simulation step         Convergence     Electron number  ETRS Iterations
 RTBSE|            2370     0.64993538E-007     0.10000000E+002                6
 RTBSE| Simulation step         Convergence     Electron number  ETRS Iterations
 RTBSE|            2371     0.84774011E-007     0.10000000E+002                6
 RTBSE| Simulation step         Convergence     Electron number  ETRS Iterations
 RTBSE|            2372     0.18358618E-007     0.10000000E+002                7
 RTBSE| Simulation step         Convergence     Electron number  ETRS Iterations
 RTBSE|            2373     0.22218238E-007     0.10000000E+002                7
 RTBSE| Simulation step         Convergence     Electron number  ETRS Iterations
 RTBSE|            2374     0.25586018E-007     0.10000000E+002                7
 RTBSE| Simulation step         Convergence     Electron number  ETRS Iterations
 RTBSE|            2375     0.28190071E-007     0.10000000E+002                7
 RTBSE| Simulation step         Convergence     Electron number  ETRS Iterations
 RTBSE|            2376     0.29812515E-007     0.10000000E+002                7
 RTBSE| Simulation step         Convergence     Electron number  ETRS Iterations
 RTBSE|            2377     0.30318458E-007     0.10000000E+002                7
 RTBSE| Simulation step         Convergence     Electron number  ETRS Iterations
 RTBSE|            2378     0.29708857E-007     0.10000000E+002                7
 RTBSE| Simulation step         Convergence     Electron number  ETRS Iterations
 RTBSE|            2379     0.28108994E-007     0.10000000E+002                7
 RTBSE| Simulation step         Convergence     Electron number  ETRS Iterations
 RTBSE|            2380     0.25720788E-007     0.10000000E+002                7
 RTBSE| Simulation step         Convergence     Electron number  ETRS Iterations
 RTBSE|            2381     0.22797696E-007     0.10000000E+002                7
 RTBSE| Simulation step         Convergence     Electron number  ETRS Iterations
 RTBSE|            2382     0.19615202E-007     0.10000000E+002                7
 RTBSE| Simulation step         Convergence     Electron number  ETRS Iterations
 RTBSE|            2383     0.16427581E-007     0.10000000E+002                7
 RTBSE| Simulation step         Convergence     Electron number  ETRS Iterations
 RTBSE|            2384     0.96132178E-007     0.10000000E+002                6
 RTBSE| Simulation step         Convergence     Electron number  ETRS Iterations
 RTBSE|            2385     0.82417277E-007     0.10000000E+002                6
 RTBSE| Simulation step         Convergence     Electron number  ETRS Iterations
 RTBSE|            2386     0.70252681E-007     0.10000000E+002                6
 RTBSE| Simulation step         Convergence     Electron number  ETRS Iterations
 RTBSE|            2387     0.59941667E-007     0.10000000E+002                6
 RTBSE| Simulation step         Convergence     Electron number  ETRS Iterations
 RTBSE|            2388     0.51389127E-007     0.10000000E+002                6
 RTBSE| Simulation step         Convergence     Electron number  ETRS Iterations
 RTBSE|            2389     0.44214498E-007     0.10000000E+002                6
 RTBSE| Simulation step         Convergence     Electron number  ETRS Iterations
 RTBSE|            2390     0.37778056E-007     0.10000000E+002                6
 RTBSE| Simulation step         Convergence     Electron number  ETRS Iterations
 RTBSE|            2391     0.31388832E-007     0.10000000E+002                6
 RTBSE| Simulation step         Convergence     Electron number  ETRS Iterations
 RTBSE|            2392     0.24402364E-007     0.10000000E+002                6
 RTBSE| Simulation step         Convergence     Electron number  ETRS Iterations
 RTBSE|            2393     0.19522710E-007     0.10000000E+002                6
 RTBSE| Simulation step         Convergence     Electron number  ETRS Iterations
 RTBSE|            2394     0.28426324E-007     0.10000000E+002                6
 RTBSE| Simulation step         Convergence     Electron number  ETRS Iterations
 RTBSE|            2395     0.39597067E-007     0.10000000E+002                6
 RTBSE| Simulation step         Convergence     Electron number  ETRS Iterations
 RTBSE|            2396     0.52006528E-007     0.10000000E+002                6
 RTBSE| Simulation step         Convergence     Electron number  ETRS Iterations
 RTBSE|            2397     0.64829043E-007     0.10000000E+002                6
 RTBSE| Simulation step         Convergence     Electron number  ETRS Iterations
 RTBSE|            2398     0.77209532E-007     0.10000000E+002                6
 RTBSE| Simulation step         Convergence     Electron number  ETRS Iterations
 RTBSE|            2399     0.88302273E-007     0.10000000E+002                6
 RTBSE| Simulation step         Convergence     Electron number  ETRS Iterations
 RTBSE|            2400     0.97324815E-007     0.10000000E+002                6
 RTBSE| Simulation step         Convergence     Electron number  ETRS Iterations
 RTBSE|            2401     0.17554347E-007     0.10000000E+002                7
 RTBSE| Simulation step         Convergence     Electron number  ETRS Iterations
 RTBSE|            2402     0.18289748E-007     0.10000000E+002                7
 RTBSE| Simulation step         Convergence     Electron number  ETRS Iterations
 RTBSE|            2403     0.18448563E-007     0.10000000E+002                7
 RTBSE| Simulation step         Convergence     Electron number  ETRS Iterations
 RTBSE|            2404     0.18015238E-007     0.10000000E+002                7
 RTBSE| Simulation step         Convergence     Electron number  ETRS Iterations
 RTBSE|            2405     0.17037946E-007     0.10000000E+002                7
 RTBSE| Simulation step         Convergence     Electron number  ETRS Iterations
 RTBSE|            2406     0.97410348E-007     0.10000000E+002                6
 RTBSE| Simulation step         Convergence     Electron number  ETRS Iterations
 RTBSE|            2407     0.90049070E-007     0.10000000E+002                6
 RTBSE| Simulation step         Convergence     Electron number  ETRS Iterations
 RTBSE|            2408     0.81170936E-007     0.10000000E+002                6
 RTBSE| Simulation step         Convergence     Electron number  ETRS Iterations
 RTBSE|            2409     0.73280237E-007     0.10000000E+002                6
 RTBSE| Simulation step         Convergence     Electron number  ETRS Iterations
 RTBSE|            2410     0.65814649E-007     0.10000000E+002                6
 RTBSE| Simulation step         Convergence     Electron number  ETRS Iterations
 RTBSE|            2411     0.59221477E-007     0.10000000E+002                6
 RTBSE| Simulation step         Convergence     Electron number  ETRS Iterations
 RTBSE|            2412     0.53868355E-007     0.10000000E+002                6
 RTBSE| Simulation step         Convergence     Electron number  ETRS Iterations
 RTBSE|            2413     0.49778280E-007     0.10000000E+002                6
 RTBSE| Simulation step         Convergence     Electron number  ETRS Iterations
 RTBSE|            2414     0.46652667E-007     0.10000000E+002                6
 RTBSE| Simulation step         Convergence     Electron number  ETRS Iterations
 RTBSE|            2415     0.43923410E-007     0.10000000E+002                6
 RTBSE| Simulation step         Convergence     Electron number  ETRS Iterations
 RTBSE|            2416     0.40691169E-007     0.10000000E+002                6
 RTBSE| Simulation step         Convergence     Electron number  ETRS Iterations
 RTBSE|            2417     0.35919870E-007     0.10000000E+002                6
 RTBSE| Simulation step         Convergence     Electron number  ETRS Iterations
 RTBSE|            2418     0.28623513E-007     0.10000000E+002                6
 RTBSE| Simulation step         Convergence     Electron number  ETRS Iterations
 RTBSE|            2419     0.29821209E-007     0.10000000E+002                6
 RTBSE| Simulation step         Convergence     Electron number  ETRS Iterations
 RTBSE|            2420     0.44193067E-007     0.10000000E+002                6
 RTBSE| Simulation step         Convergence     Electron number  ETRS Iterations
 RTBSE|            2421     0.62086562E-007     0.10000000E+002                6
 RTBSE| Simulation step         Convergence     Electron number  ETRS Iterations
 RTBSE|            2422     0.82153150E-007     0.10000000E+002                6
 RTBSE| Simulation step         Convergence     Electron number  ETRS Iterations
 RTBSE|            2423     0.17856713E-007     0.10000000E+002                7
 RTBSE| Simulation step         Convergence     Electron number  ETRS Iterations
 RTBSE|            2424     0.21740480E-007     0.10000000E+002                7
 RTBSE| Simulation step         Convergence     Electron number  ETRS Iterations
 RTBSE|            2425     0.25134725E-007     0.10000000E+002                7
 RTBSE| Simulation step         Convergence     Electron number  ETRS Iterations
 RTBSE|            2426     0.27791570E-007     0.10000000E+002                7
 RTBSE| Simulation step         Convergence     Electron number  ETRS Iterations
 RTBSE|            2427     0.29483731E-007     0.10000000E+002                7
 RTBSE| Simulation step         Convergence     Electron number  ETRS Iterations
 RTBSE|            2428     0.30118231E-007     0.10000000E+002                7
 RTBSE| Simulation step         Convergence     Electron number  ETRS Iterations
 RTBSE|            2429     0.29712626E-007     0.10000000E+002                7
 RTBSE| Simulation step         Convergence     Electron number  ETRS Iterations
 RTBSE|            2430     0.28364668E-007     0.10000000E+002                7
 RTBSE| Simulation step         Convergence     Electron number  ETRS Iterations
 RTBSE|            2431     0.26268517E-007     0.10000000E+002                7
 RTBSE| Simulation step         Convergence     Electron number  ETRS Iterations
 RTBSE|            2432     0.23644763E-007     0.10000000E+002                7
 RTBSE| Simulation step         Convergence     Electron number  ETRS Iterations
 RTBSE|            2433     0.20755701E-007     0.10000000E+002                7
 RTBSE| Simulation step         Convergence     Electron number  ETRS Iterations
 RTBSE|            2434     0.17803575E-007     0.10000000E+002                7
 RTBSE| Simulation step         Convergence     Electron number  ETRS Iterations
 RTBSE|            2435     0.14987851E-007     0.10000000E+002                7
 RTBSE| Simulation step         Convergence     Electron number  ETRS Iterations
 RTBSE|            2436     0.90581330E-007     0.10000000E+002                6
 RTBSE| Simulation step         Convergence     Electron number  ETRS Iterations
 RTBSE|            2437     0.79087590E-007     0.10000000E+002                6
 RTBSE| Simulation step         Convergence     Electron number  ETRS Iterations
 RTBSE|            2438     0.68918249E-007     0.10000000E+002                6
 RTBSE| Simulation step         Convergence     Electron number  ETRS Iterations
 RTBSE|            2439     0.59932325E-007     0.10000000E+002                6
 RTBSE| Simulation step         Convergence     Electron number  ETRS Iterations
 RTBSE|            2440     0.51832204E-007     0.10000000E+002                6
 RTBSE| Simulation step         Convergence     Electron number  ETRS Iterations
 RTBSE|            2441     0.44093404E-007     0.10000000E+002                6
 RTBSE| Simulation step         Convergence     Electron number  ETRS Iterations
 RTBSE|            2442     0.36182949E-007     0.10000000E+002                6
 RTBSE| Simulation step         Convergence     Electron number  ETRS Iterations
 RTBSE|            2443     0.27595035E-007     0.10000000E+002                6
 RTBSE| Simulation step         Convergence     Electron number  ETRS Iterations
 RTBSE|            2444     0.20041126E-007     0.10000000E+002                6
 RTBSE| Simulation step         Convergence     Electron number  ETRS Iterations
 RTBSE|            2445     0.29585219E-007     0.10000000E+002                6
 RTBSE| Simulation step         Convergence     Electron number  ETRS Iterations
 RTBSE|            2446     0.41266189E-007     0.10000000E+002                6
 RTBSE| Simulation step         Convergence     Electron number  ETRS Iterations
 RTBSE|            2447     0.53818344E-007     0.10000000E+002                6
 RTBSE| Simulation step         Convergence     Electron number  ETRS Iterations
 RTBSE|            2448     0.66419226E-007     0.10000000E+002                6
 RTBSE| Simulation step         Convergence     Electron number  ETRS Iterations
 RTBSE|            2449     0.78189015E-007     0.10000000E+002                6
 RTBSE| Simulation step         Convergence     Electron number  ETRS Iterations
 RTBSE|            2450     0.88426312E-007     0.10000000E+002                6
 RTBSE| Simulation step         Convergence     Electron number  ETRS Iterations
 RTBSE|            2451     0.96465240E-007     0.10000000E+002                6
 RTBSE| Simulation step         Convergence     Electron number  ETRS Iterations
 RTBSE|            2452     0.17237176E-007     0.10000000E+002                7
 RTBSE| Simulation step         Convergence     Electron number  ETRS Iterations
 RTBSE|            2453     0.17826271E-007     0.10000000E+002                7
 RTBSE| Simulation step         Convergence     Electron number  ETRS Iterations
 RTBSE|            2454     0.17880338E-007     0.10000000E+002                7
 RTBSE| Simulation step         Convergence     Electron number  ETRS Iterations
 RTBSE|            2455     0.99962145E-007     0.10000000E+002                6
 RTBSE| Simulation step         Convergence     Electron number  ETRS Iterations
 RTBSE|            2456     0.97934424E-007     0.10000000E+002                6
 RTBSE| Simulation step         Convergence     Electron number  ETRS Iterations
 RTBSE|            2457     0.93309365E-007     0.10000000E+002                6
 RTBSE| Simulation step         Convergence     Electron number  ETRS Iterations
 RTBSE|            2458     0.86849583E-007     0.10000000E+002                6
 RTBSE| Simulation step         Convergence     Electron number  ETRS Iterations
 RTBSE|            2459     0.79370846E-007     0.10000000E+002                6
 RTBSE| Simulation step         Convergence     Electron number  ETRS Iterations
 RTBSE|            2460     0.72793641E-007     0.10000000E+002                6
 RTBSE| Simulation step         Convergence     Electron number  ETRS Iterations
 RTBSE|            2461     0.67089698E-007     0.10000000E+002                6
 RTBSE| Simulation step         Convergence     Electron number  ETRS Iterations
 RTBSE|            2462     0.62308292E-007     0.10000000E+002                6
 RTBSE| Simulation step         Convergence     Electron number  ETRS Iterations
 RTBSE|            2463     0.58644982E-007     0.10000000E+002                6
 RTBSE| Simulation step         Convergence     Electron number  ETRS Iterations
 RTBSE|            2464     0.56030265E-007     0.10000000E+002                6
 RTBSE| Simulation step         Convergence     Electron number  ETRS Iterations
 RTBSE|            2465     0.54027840E-007     0.10000000E+002                6
 RTBSE| Simulation step         Convergence     Electron number  ETRS Iterations
 RTBSE|            2466     0.51944425E-007     0.10000000E+002                6
 RTBSE| Simulation step         Convergence     Electron number  ETRS Iterations
 RTBSE|            2467     0.48894812E-007     0.10000000E+002                6
 RTBSE| Simulation step         Convergence     Electron number  ETRS Iterations
 RTBSE|            2468     0.43889349E-007     0.10000000E+002                6
 RTBSE| Simulation step         Convergence     Electron number  ETRS Iterations
 RTBSE|            2469     0.36048010E-007     0.10000000E+002                6
 RTBSE| Simulation step         Convergence     Electron number  ETRS Iterations
 RTBSE|            2470     0.26974263E-007     0.10000000E+002                6
 RTBSE| Simulation step         Convergence     Electron number  ETRS Iterations
 RTBSE|            2471     0.41358326E-007     0.10000000E+002                6
 RTBSE| Simulation step         Convergence     Electron number  ETRS Iterations
 RTBSE|            2472     0.59851725E-007     0.10000000E+002                6
 RTBSE| Simulation step         Convergence     Electron number  ETRS Iterations
 RTBSE|            2473     0.80585018E-007     0.10000000E+002                6
 RTBSE| Simulation step         Convergence     Electron number  ETRS Iterations
 RTBSE|            2474     0.17664994E-007     0.10000000E+002                7
 RTBSE| Simulation step         Convergence     Electron number  ETRS Iterations
 RTBSE|            2475     0.21654273E-007     0.10000000E+002                7
 RTBSE| Simulation step         Convergence     Electron number  ETRS Iterations
 RTBSE|            2476     0.25128115E-007     0.10000000E+002                7
 RTBSE| Simulation step         Convergence     Electron number  ETRS Iterations
 RTBSE|            2477     0.27835256E-007     0.10000000E+002                7
 RTBSE| Simulation step         Convergence     Electron number  ETRS Iterations
 RTBSE|            2478     0.29579719E-007     0.10000000E+002                7
 RTBSE| Simulation step         Convergence     Electron number  ETRS Iterations
 RTBSE|            2479     0.30281832E-007     0.10000000E+002                7
 RTBSE| Simulation step         Convergence     Electron number  ETRS Iterations
 RTBSE|            2480     0.29950362E-007     0.10000000E+002                7
 RTBSE| Simulation step         Convergence     Electron number  ETRS Iterations
 RTBSE|            2481     0.28690045E-007     0.10000000E+002                7
 RTBSE| Simulation step         Convergence     Electron number  ETRS Iterations
 RTBSE|            2482     0.26721791E-007     0.10000000E+002                7
 RTBSE| Simulation step         Convergence     Electron number  ETRS Iterations
 RTBSE|            2483     0.24239088E-007     0.10000000E+002                7
 RTBSE| Simulation step         Convergence     Electron number  ETRS Iterations
 RTBSE|            2484     0.21494201E-007     0.10000000E+002                7
 RTBSE| Simulation step         Convergence     Electron number  ETRS Iterations
 RTBSE|            2485     0.18695906E-007     0.10000000E+002                7
 RTBSE| Simulation step         Convergence     Electron number  ETRS Iterations
 RTBSE|            2486     0.16014868E-007     0.10000000E+002                7
 RTBSE| Simulation step         Convergence     Electron number  ETRS Iterations
 RTBSE|            2487     0.95893147E-007     0.10000000E+002                6
 RTBSE| Simulation step         Convergence     Electron number  ETRS Iterations
 RTBSE|            2488     0.84846644E-007     0.10000000E+002                6
 RTBSE| Simulation step         Convergence     Electron number  ETRS Iterations
 RTBSE|            2489     0.74793838E-007     0.10000000E+002                6
 RTBSE| Simulation step         Convergence     Electron number  ETRS Iterations
 RTBSE|            2490     0.65637744E-007     0.10000000E+002                6
 RTBSE| Simulation step         Convergence     Electron number  ETRS Iterations
 RTBSE|            2491     0.57054344E-007     0.10000000E+002                6
 RTBSE| Simulation step         Convergence     Electron number  ETRS Iterations
 RTBSE|            2492     0.48568688E-007     0.10000000E+002                6
 RTBSE| Simulation step         Convergence     Electron number  ETRS Iterations
 RTBSE|            2493     0.39733982E-007     0.10000000E+002                6
 RTBSE| Simulation step         Convergence     Electron number  ETRS Iterations
 RTBSE|            2494     0.30164544E-007     0.10000000E+002                6
 RTBSE| Simulation step         Convergence     Electron number  ETRS Iterations
 RTBSE|            2495     0.19724702E-007     0.10000000E+002                6
 RTBSE| Simulation step         Convergence     Electron number  ETRS Iterations
 RTBSE|            2496     0.29444903E-007     0.10000000E+002                6
 RTBSE| Simulation step         Convergence     Electron number  ETRS Iterations
 RTBSE|            2497     0.41275621E-007     0.10000000E+002                6
 RTBSE| Simulation step         Convergence     Electron number  ETRS Iterations
 RTBSE|            2498     0.53783789E-007     0.10000000E+002                6
 RTBSE| Simulation step         Convergence     Electron number  ETRS Iterations
 RTBSE|            2499     0.66055126E-007     0.10000000E+002                6
 RTBSE| Simulation step         Convergence     Electron number  ETRS Iterations
 RTBSE|            2500     0.77330264E-007     0.10000000E+002                6
 RTBSE| Simulation step         Convergence     Electron number  ETRS Iterations
 RTBSE|            2501     0.86875278E-007     0.10000000E+002                6
 RTBSE| Simulation step         Convergence     Electron number  ETRS Iterations
 RTBSE|            2502     0.94138780E-007     0.10000000E+002                6
 RTBSE| Simulation step         Convergence     Electron number  ETRS Iterations
 RTBSE|            2503     0.98722103E-007     0.10000000E+002                6
 RTBSE| Simulation step         Convergence     Electron number  ETRS Iterations
 RTBSE|            2504     0.17190237E-007     0.10000000E+002                7
 RTBSE| Simulation step         Convergence     Electron number  ETRS Iterations
 RTBSE|            2505     0.99098134E-007     0.10000000E+002                6
 RTBSE| Simulation step         Convergence     Electron number  ETRS Iterations
 RTBSE|            2506     0.95194726E-007     0.10000000E+002                6
 RTBSE| Simulation step         Convergence     Electron number  ETRS Iterations
 RTBSE|            2507     0.93210976E-007     0.10000000E+002                6
 RTBSE| Simulation step         Convergence     Electron number  ETRS Iterations
 RTBSE|            2508     0.89159268E-007     0.10000000E+002                6
 RTBSE| Simulation step         Convergence     Electron number  ETRS Iterations
 RTBSE|            2509     0.83669061E-007     0.10000000E+002                6
 RTBSE| Simulation step         Convergence     Electron number  ETRS Iterations
 RTBSE|            2510     0.77532428E-007     0.10000000E+002                6
 RTBSE| Simulation step         Convergence     Electron number  ETRS Iterations
 RTBSE|            2511     0.72197011E-007     0.10000000E+002                6
 RTBSE| Simulation step         Convergence     Electron number  ETRS Iterations
 RTBSE|            2512     0.68236106E-007     0.10000000E+002                6
 RTBSE| Simulation step         Convergence     Electron number  ETRS Iterations
 RTBSE|            2513     0.65261420E-007     0.10000000E+002                6
 RTBSE| Simulation step         Convergence     Electron number  ETRS Iterations
 RTBSE|            2514     0.63341912E-007     0.10000000E+002                6
 RTBSE| Simulation step         Convergence     Electron number  ETRS Iterations
 RTBSE|            2515     0.62250673E-007     0.10000000E+002                6
 RTBSE| Simulation step         Convergence     Electron number  ETRS Iterations
 RTBSE|            2516     0.61512279E-007     0.10000000E+002                6
 RTBSE| Simulation step         Convergence     Electron number  ETRS Iterations
 RTBSE|            2517     0.60358695E-007     0.10000000E+002                6
 RTBSE| Simulation step         Convergence     Electron number  ETRS Iterations
 RTBSE|            2518     0.57814440E-007     0.10000000E+002                6
 RTBSE| Simulation step         Convergence     Electron number  ETRS Iterations
 RTBSE|            2519     0.52848699E-007     0.10000000E+002                6
 RTBSE| Simulation step         Convergence     Electron number  ETRS Iterations
 RTBSE|            2520     0.44518378E-007     0.10000000E+002                6
 RTBSE| Simulation step         Convergence     Electron number  ETRS Iterations
 RTBSE|            2521     0.32209948E-007     0.10000000E+002                6
 RTBSE| Simulation step         Convergence     Electron number  ETRS Iterations
 RTBSE|            2522     0.38443453E-007     0.10000000E+002                6
 RTBSE| Simulation step         Convergence     Electron number  ETRS Iterations
 RTBSE|            2523     0.57594807E-007     0.10000000E+002                6
 RTBSE| Simulation step         Convergence     Electron number  ETRS Iterations
 RTBSE|            2524     0.79278929E-007     0.10000000E+002                6
 RTBSE| Simulation step         Convergence     Electron number  ETRS Iterations
 RTBSE|            2525     0.17542708E-007     0.10000000E+002                7
 RTBSE| Simulation step         Convergence     Electron number  ETRS Iterations
 RTBSE|            2526     0.21684794E-007     0.10000000E+002                7
 RTBSE| Simulation step         Convergence     Electron number  ETRS Iterations
 RTBSE|            2527     0.25242834E-007     0.10000000E+002                7
 RTBSE| Simulation step         Convergence     Electron number  ETRS Iterations
 RTBSE|            2528     0.27985274E-007     0.10000000E+002                7
 RTBSE| Simulation step         Convergence     Electron number  ETRS Iterations
 RTBSE|            2529     0.29735437E-007     0.10000000E+002                7
 RTBSE| Simulation step         Convergence     Electron number  ETRS Iterations
 RTBSE|            2530     0.30433011E-007     0.10000000E+002                7
 RTBSE| Simulation step         Convergence     Electron number  ETRS Iterations
 RTBSE|            2531     0.30100946E-007     0.10000000E+002                7
 RTBSE| Simulation step         Convergence     Electron number  ETRS Iterations
 RTBSE|            2532     0.28886300E-007     0.10000000E+002                7
 RTBSE| Simulation step         Convergence     Electron number  ETRS Iterations
 RTBSE|            2533     0.26971086E-007     0.10000000E+002                7
 RTBSE| Simulation step         Convergence     Electron number  ETRS Iterations
 RTBSE|            2534     0.24586055E-007     0.10000000E+002                7
 RTBSE| Simulation step         Convergence     Electron number  ETRS Iterations
 RTBSE|            2535     0.21962100E-007     0.10000000E+002                7
 RTBSE| Simulation step         Convergence     Electron number  ETRS Iterations
 RTBSE|            2536     0.19310303E-007     0.10000000E+002                7
 RTBSE| Simulation step         Convergence     Electron number  ETRS Iterations
 RTBSE|            2537     0.16730124E-007     0.10000000E+002                7
 RTBSE| Simulation step         Convergence     Electron number  ETRS Iterations
 RTBSE|            2538     0.99220214E-007     0.10000000E+002                6
 RTBSE| Simulation step         Convergence     Electron number  ETRS Iterations
 RTBSE|            2539     0.88717627E-007     0.10000000E+002                6
 RTBSE| Simulation step         Convergence     Electron number  ETRS Iterations
 RTBSE|            2540     0.79081685E-007     0.10000000E+002                6
 RTBSE| Simulation step         Convergence     Electron number  ETRS Iterations
 RTBSE|            2541     0.70114918E-007     0.10000000E+002                6
 RTBSE| Simulation step         Convergence     Electron number  ETRS Iterations
 RTBSE|            2542     0.61483630E-007     0.10000000E+002                6
 RTBSE| Simulation step         Convergence     Electron number  ETRS Iterations
 RTBSE|            2543     0.52806592E-007     0.10000000E+002                6
 RTBSE| Simulation step         Convergence     Electron number  ETRS Iterations
 RTBSE|            2544     0.43691661E-007     0.10000000E+002                6
 RTBSE| Simulation step         Convergence     Electron number  ETRS Iterations
 RTBSE|            2545     0.33786096E-007     0.10000000E+002                6
 RTBSE| Simulation step         Convergence     Electron number  ETRS Iterations
 RTBSE|            2546     0.22886664E-007     0.10000000E+002                6
 RTBSE| Simulation step         Convergence     Electron number  ETRS Iterations
 RTBSE|            2547     0.27394090E-007     0.10000000E+002                6
 RTBSE| Simulation step         Convergence     Electron number  ETRS Iterations
 RTBSE|            2548     0.39200610E-007     0.10000000E+002                6
 RTBSE| Simulation step         Convergence     Electron number  ETRS Iterations
 RTBSE|            2549     0.51743747E-007     0.10000000E+002                6
 RTBSE| Simulation step         Convergence     Electron number  ETRS Iterations
 RTBSE|            2550     0.63942325E-007     0.10000000E+002                6
 RTBSE| Simulation step         Convergence     Electron number  ETRS Iterations
 RTBSE|            2551     0.75036808E-007     0.10000000E+002                6
 RTBSE| Simulation step         Convergence     Electron number  ETRS Iterations
 RTBSE|            2552     0.84357592E-007     0.10000000E+002                6
 RTBSE| Simulation step         Convergence     Electron number  ETRS Iterations
 RTBSE|            2553     0.91406052E-007     0.10000000E+002                6
 RTBSE| Simulation step         Convergence     Electron number  ETRS Iterations
 RTBSE|            2554     0.95755104E-007     0.10000000E+002                6
 RTBSE| Simulation step         Convergence     Electron number  ETRS Iterations
 RTBSE|            2555     0.97301359E-007     0.10000000E+002                6
 RTBSE| Simulation step         Convergence     Electron number  ETRS Iterations
 RTBSE|            2556     0.96113027E-007     0.10000000E+002                6
 RTBSE| Simulation step         Convergence     Electron number  ETRS Iterations
 RTBSE|            2557     0.92552844E-007     0.10000000E+002                6
 RTBSE| Simulation step         Convergence     Electron number  ETRS Iterations
 RTBSE|            2558     0.89334190E-007     0.10000000E+002                6
 RTBSE| Simulation step         Convergence     Electron number  ETRS Iterations
 RTBSE|            2559     0.85920537E-007     0.10000000E+002                6
 RTBSE| Simulation step         Convergence     Electron number  ETRS Iterations
 RTBSE|            2560     0.81441217E-007     0.10000000E+002                6
 RTBSE| Simulation step         Convergence     Electron number  ETRS Iterations
 RTBSE|            2561     0.76697213E-007     0.10000000E+002                6
 RTBSE| Simulation step         Convergence     Electron number  ETRS Iterations
 RTBSE|            2562     0.72556246E-007     0.10000000E+002                6
 RTBSE| Simulation step         Convergence     Electron number  ETRS Iterations
 RTBSE|            2563     0.70352403E-007     0.10000000E+002                6
 RTBSE| Simulation step         Convergence     Electron number  ETRS Iterations
 RTBSE|            2564     0.69215370E-007     0.10000000E+002                6
 RTBSE| Simulation step         Convergence     Electron number  ETRS Iterations
 RTBSE|            2565     0.69103797E-007     0.10000000E+002                6
 RTBSE| Simulation step         Convergence     Electron number  ETRS Iterations
 RTBSE|            2566     0.69669171E-007     0.10000000E+002                6
 RTBSE| Simulation step         Convergence     Electron number  ETRS Iterations
 RTBSE|            2567     0.70215444E-007     0.10000000E+002                6
 RTBSE| Simulation step         Convergence     Electron number  ETRS Iterations
 RTBSE|            2568     0.69848556E-007     0.10000000E+002                6
 RTBSE| Simulation step         Convergence     Electron number  ETRS Iterations
 RTBSE|            2569     0.67475031E-007     0.10000000E+002                6
 RTBSE| Simulation step         Convergence     Electron number  ETRS Iterations
 RTBSE|            2570     0.62032852E-007     0.10000000E+002                6
 RTBSE| Simulation step         Convergence     Electron number  ETRS Iterations
 RTBSE|            2571     0.52704644E-007     0.10000000E+002                6
 RTBSE| Simulation step         Convergence     Electron number  ETRS Iterations
 RTBSE|            2572     0.38972926E-007     0.10000000E+002                6
 RTBSE| Simulation step         Convergence     Electron number  ETRS Iterations
 RTBSE|            2573     0.36962793E-007     0.10000000E+002                6
 RTBSE| Simulation step         Convergence     Electron number  ETRS Iterations
 RTBSE|            2574     0.56959816E-007     0.10000000E+002                6
 RTBSE| Simulation step         Convergence     Electron number  ETRS Iterations
 RTBSE|            2575     0.79673553E-007     0.10000000E+002                6
 RTBSE| Simulation step         Convergence     Electron number  ETRS Iterations
 RTBSE|            2576     0.17784457E-007     0.10000000E+002                7
 RTBSE| Simulation step         Convergence     Electron number  ETRS Iterations
 RTBSE|            2577     0.22025517E-007     0.10000000E+002                7
 RTBSE| Simulation step         Convergence     Electron number  ETRS Iterations
 RTBSE|            2578     0.25611725E-007     0.10000000E+002                7
 RTBSE| Simulation step         Convergence     Electron number  ETRS Iterations
 RTBSE|            2579     0.28319822E-007     0.10000000E+002                7
 RTBSE| Simulation step         Convergence     Electron number  ETRS Iterations
 RTBSE|            2580     0.29988042E-007     0.10000000E+002                7
 RTBSE| Simulation step         Convergence     Electron number  ETRS Iterations
 RTBSE|            2581     0.30594379E-007     0.10000000E+002                7
 RTBSE| Simulation step         Convergence     Electron number  ETRS Iterations
 RTBSE|            2582     0.30192374E-007     0.10000000E+002                7
 RTBSE| Simulation step         Convergence     Electron number  ETRS Iterations
 RTBSE|            2583     0.28925464E-007     0.10000000E+002                7
 RTBSE| Simulation step         Convergence     Electron number  ETRS Iterations
 RTBSE|            2584     0.27017706E-007     0.10000000E+002                7
 RTBSE| Simulation step         Convergence     Electron number  ETRS Iterations
 RTBSE|            2585     0.24678876E-007     0.10000000E+002                7
 RTBSE| Simulation step         Convergence     Electron number  ETRS Iterations
 RTBSE|            2586     0.22149633E-007     0.10000000E+002                7
 RTBSE| Simulation step         Convergence     Electron number  ETRS Iterations
 RTBSE|            2587     0.19600579E-007     0.10000000E+002                7
 RTBSE| Simulation step         Convergence     Electron number  ETRS Iterations
 RTBSE|            2588     0.17169626E-007     0.10000000E+002                7
 RTBSE| Simulation step         Convergence     Electron number  ETRS Iterations
 RTBSE|            2589     0.14930758E-007     0.10000000E+002                7
 RTBSE| Simulation step         Convergence     Electron number  ETRS Iterations
 RTBSE|            2590     0.91251736E-007     0.10000000E+002                6
 RTBSE| Simulation step         Convergence     Electron number  ETRS Iterations
 RTBSE|            2591     0.82370362E-007     0.10000000E+002                6
 RTBSE| Simulation step         Convergence     Electron number  ETRS Iterations
 RTBSE|            2592     0.74079615E-007     0.10000000E+002                6
 RTBSE| Simulation step         Convergence     Electron number  ETRS Iterations
 RTBSE|            2593     0.66000755E-007     0.10000000E+002                6
 RTBSE| Simulation step         Convergence     Electron number  ETRS Iterations
 RTBSE|            2594     0.57674748E-007     0.10000000E+002                6
 RTBSE| Simulation step         Convergence     Electron number  ETRS Iterations
 RTBSE|            2595     0.48658873E-007     0.10000000E+002                6
 RTBSE| Simulation step         Convergence     Electron number  ETRS Iterations
 RTBSE|            2596     0.38639241E-007     0.10000000E+002                6
 RTBSE| Simulation step         Convergence     Electron number  ETRS Iterations
 RTBSE|            2597     0.27449151E-007     0.10000000E+002                6
 RTBSE| Simulation step         Convergence     Electron number  ETRS Iterations
 RTBSE|            2598     0.24655848E-007     0.10000000E+002                6
 RTBSE| Simulation step         Convergence     Electron number  ETRS Iterations
 RTBSE|            2599     0.36437340E-007     0.10000000E+002                6
 RTBSE| Simulation step         Convergence     Electron number  ETRS Iterations
 RTBSE|            2600     0.49220526E-007     0.10000000E+002                6
 RTBSE| Simulation step         Convergence     Electron number  ETRS Iterations
 RTBSE|            2601     0.61711656E-007     0.10000000E+002                6
 RTBSE| Simulation step         Convergence     Electron number  ETRS Iterations
 RTBSE|            2602     0.72964075E-007     0.10000000E+002                6
 RTBSE| Simulation step         Convergence     Electron number  ETRS Iterations
 RTBSE|            2603     0.82370767E-007     0.10000000E+002                6
 RTBSE| Simulation step         Convergence     Electron number  ETRS Iterations
 RTBSE|            2604     0.89371085E-007     0.10000000E+002                6
 RTBSE| Simulation step         Convergence     Electron number  ETRS Iterations
 RTBSE|            2605     0.93684033E-007     0.10000000E+002                6
 RTBSE| Simulation step         Convergence     Electron number  ETRS Iterations
 RTBSE|            2606     0.95285227E-007     0.10000000E+002                6
 RTBSE| Simulation step         Convergence     Electron number  ETRS Iterations
 RTBSE|            2607     0.94268295E-007     0.10000000E+002                6
 RTBSE| Simulation step         Convergence     Electron number  ETRS Iterations
 RTBSE|            2608     0.91085434E-007     0.10000000E+002                6
 RTBSE| Simulation step         Convergence     Electron number  ETRS Iterations
 RTBSE|            2609     0.86705022E-007     0.10000000E+002                6
 RTBSE| Simulation step         Convergence     Electron number  ETRS Iterations
 RTBSE|            2610     0.84031286E-007     0.10000000E+002                6
 RTBSE| Simulation step         Convergence     Electron number  ETRS Iterations
 RTBSE|            2611     0.80612104E-007     0.10000000E+002                6
 RTBSE| Simulation step         Convergence     Electron number  ETRS Iterations
 RTBSE|            2612     0.77198766E-007     0.10000000E+002                6
 RTBSE| Simulation step         Convergence     Electron number  ETRS Iterations
 RTBSE|            2613     0.74359163E-007     0.10000000E+002                6
 RTBSE| Simulation step         Convergence     Electron number  ETRS Iterations
 RTBSE|            2614     0.73373217E-007     0.10000000E+002                6
 RTBSE| Simulation step         Convergence     Electron number  ETRS Iterations
 RTBSE|            2615     0.73709660E-007     0.10000000E+002                6
 RTBSE| Simulation step         Convergence     Electron number  ETRS Iterations
 RTBSE|            2616     0.74849977E-007     0.10000000E+002                6
 RTBSE| Simulation step         Convergence     Electron number  ETRS Iterations
 RTBSE|            2617     0.76293745E-007     0.10000000E+002                6
 RTBSE| Simulation step         Convergence     Electron number  ETRS Iterations
 RTBSE|            2618     0.77273929E-007     0.10000000E+002                6
 RTBSE| Simulation step         Convergence     Electron number  ETRS Iterations
 RTBSE|            2619     0.76874346E-007     0.10000000E+002                6
 RTBSE| Simulation step         Convergence     Electron number  ETRS Iterations
 RTBSE|            2620     0.74024206E-007     0.10000000E+002                6
 RTBSE| Simulation step         Convergence     Electron number  ETRS Iterations
 RTBSE|            2621     0.67760951E-007     0.10000000E+002                6
 RTBSE| Simulation step         Convergence     Electron number  ETRS Iterations
 RTBSE|            2622     0.57303261E-007     0.10000000E+002                6
 RTBSE| Simulation step         Convergence     Electron number  ETRS Iterations
 RTBSE|            2623     0.42253963E-007     0.10000000E+002                6
 RTBSE| Simulation step         Convergence     Electron number  ETRS Iterations
 RTBSE|            2624     0.36551058E-007     0.10000000E+002                6
 RTBSE| Simulation step         Convergence     Electron number  ETRS Iterations
 RTBSE|            2625     0.56877910E-007     0.10000000E+002                6
 RTBSE| Simulation step         Convergence     Electron number  ETRS Iterations
 RTBSE|            2626     0.79812025E-007     0.10000000E+002                6
 RTBSE| Simulation step         Convergence     Electron number  ETRS Iterations
 RTBSE|            2627     0.17891511E-007     0.10000000E+002                7
 RTBSE| Simulation step         Convergence     Electron number  ETRS Iterations
 RTBSE|            2628     0.22091973E-007     0.10000000E+002                7
 RTBSE| Simulation step         Convergence     Electron number  ETRS Iterations
 RTBSE|            2629     0.25586234E-007     0.10000000E+002                7
 RTBSE| Simulation step         Convergence     Electron number  ETRS Iterations
 RTBSE|            2630     0.28149073E-007     0.10000000E+002                7
 RTBSE| Simulation step         Convergence     Electron number  ETRS Iterations
 RTBSE|            2631     0.29674624E-007     0.10000000E+002                7
 RTBSE| Simulation step         Convergence     Electron number  ETRS Iterations
 RTBSE|            2632     0.30143268E-007     0.10000000E+002                7
 RTBSE| Simulation step         Convergence     Electron number  ETRS Iterations
 RTBSE|            2633     0.29649636E-007     0.10000000E+002                7
 RTBSE| Simulation step         Convergence     Electron number  ETRS Iterations
 RTBSE|            2634     0.28382126E-007     0.10000000E+002                7
 RTBSE| Simulation step         Convergence     Electron number  ETRS Iterations
 RTBSE|            2635     0.26513425E-007     0.10000000E+002                7
 RTBSE| Simulation step         Convergence     Electron number  ETRS Iterations
 RTBSE|            2636     0.24307407E-007     0.10000000E+002                7
 RTBSE| Simulation step         Convergence     Electron number  ETRS Iterations
 RTBSE|            2637     0.21962771E-007     0.10000000E+002                7
 RTBSE| Simulation step         Convergence     Electron number  ETRS Iterations
 RTBSE|            2638     0.19664188E-007     0.10000000E+002                7
 RTBSE| Simulation step         Convergence     Electron number  ETRS Iterations
 RTBSE|            2639     0.17510698E-007     0.10000000E+002                7
 RTBSE| Simulation step         Convergence     Electron number  ETRS Iterations
 RTBSE|            2640     0.15554462E-007     0.10000000E+002                7
 RTBSE| Simulation step         Convergence     Electron number  ETRS Iterations
 RTBSE|            2641     0.93981217E-007     0.10000000E+002                6
 RTBSE| Simulation step         Convergence     Electron number  ETRS Iterations
 RTBSE|            2642     0.86581916E-007     0.10000000E+002                6
 RTBSE| Simulation step         Convergence     Electron number  ETRS Iterations
 RTBSE|            2643     0.79510440E-007     0.10000000E+002                6
 RTBSE| Simulation step         Convergence     Electron number  ETRS Iterations
 RTBSE|            2644     0.72258813E-007     0.10000000E+002                6
 RTBSE| Simulation step         Convergence     Electron number  ETRS Iterations
 RTBSE|            2645     0.64311628E-007     0.10000000E+002                6
 RTBSE| Simulation step         Convergence     Electron number  ETRS Iterations
 RTBSE|            2646     0.55291503E-007     0.10000000E+002                6
 RTBSE| Simulation step         Convergence     Electron number  ETRS Iterations
 RTBSE|            2647     0.44931060E-007     0.10000000E+002                6
 RTBSE| Simulation step         Convergence     Electron number  ETRS Iterations
 RTBSE|            2648     0.33178631E-007     0.10000000E+002                6
 RTBSE| Simulation step         Convergence     Electron number  ETRS Iterations
 RTBSE|            2649     0.22075036E-007     0.10000000E+002                6
 RTBSE| Simulation step         Convergence     Electron number  ETRS Iterations
 RTBSE|            2650     0.33750297E-007     0.10000000E+002                6
 RTBSE| Simulation step         Convergence     Electron number  ETRS Iterations
 RTBSE|            2651     0.46926171E-007     0.10000000E+002                6
 RTBSE| Simulation step         Convergence     Electron number  ETRS Iterations
 RTBSE|            2652     0.59755775E-007     0.10000000E+002                6
 RTBSE| Simulation step         Convergence     Electron number  ETRS Iterations
 RTBSE|            2653     0.71267329E-007     0.10000000E+002                6
 RTBSE| Simulation step         Convergence     Electron number  ETRS Iterations
 RTBSE|            2654     0.80774723E-007     0.10000000E+002                6
 RTBSE| Simulation step         Convergence     Electron number  ETRS Iterations
 RTBSE|            2655     0.87815861E-007     0.10000000E+002                6
 RTBSE| Simulation step         Convergence     Electron number  ETRS Iterations
 RTBSE|            2656     0.92161227E-007     0.10000000E+002                6
 RTBSE| Simulation step         Convergence     Electron number  ETRS Iterations
 RTBSE|            2657     0.93846831E-007     0.10000000E+002                6
 RTBSE| Simulation step         Convergence     Electron number  ETRS Iterations
 RTBSE|            2658     0.93087100E-007     0.10000000E+002                6
 RTBSE| Simulation step         Convergence     Electron number  ETRS Iterations
 RTBSE|            2659     0.90383098E-007     0.10000000E+002                6
 RTBSE| Simulation step         Convergence     Electron number  ETRS Iterations
 RTBSE|            2660     0.86334712E-007     0.10000000E+002                6
 RTBSE| Simulation step         Convergence     Electron number  ETRS Iterations
 RTBSE|            2661     0.83137492E-007     0.10000000E+002                6
 RTBSE| Simulation step         Convergence     Electron number  ETRS Iterations
 RTBSE|            2662     0.80783281E-007     0.10000000E+002                6
 RTBSE| Simulation step         Convergence     Electron number  ETRS Iterations
 RTBSE|            2663     0.78502030E-007     0.10000000E+002                6
 RTBSE| Simulation step         Convergence     Electron number  ETRS Iterations
 RTBSE|            2664     0.76785389E-007     0.10000000E+002                6
 RTBSE| Simulation step         Convergence     Electron number  ETRS Iterations
 RTBSE|            2665     0.76350311E-007     0.10000000E+002                6
 RTBSE| Simulation step         Convergence     Electron number  ETRS Iterations
 RTBSE|            2666     0.77523789E-007     0.10000000E+002                6
 RTBSE| Simulation step         Convergence     Electron number  ETRS Iterations
 RTBSE|            2667     0.79270141E-007     0.10000000E+002                6
 RTBSE| Simulation step         Convergence     Electron number  ETRS Iterations
 RTBSE|            2668     0.81031920E-007     0.10000000E+002                6
 RTBSE| Simulation step         Convergence     Electron number  ETRS Iterations
 RTBSE|            2669     0.82061399E-007     0.10000000E+002                6
 RTBSE| Simulation step         Convergence     Electron number  ETRS Iterations
 RTBSE|            2670     0.81426910E-007     0.10000000E+002                6
 RTBSE| Simulation step         Convergence     Electron number  ETRS Iterations
 RTBSE|            2671     0.78125648E-007     0.10000000E+002                6
 RTBSE| Simulation step         Convergence     Electron number  ETRS Iterations
 RTBSE|            2672     0.71252958E-007     0.10000000E+002                6
 RTBSE| Simulation step         Convergence     Electron number  ETRS Iterations
 RTBSE|            2673     0.60144118E-007     0.10000000E+002                6
 RTBSE| Simulation step         Convergence     Electron number  ETRS Iterations
 RTBSE|            2674     0.44516273E-007     0.10000000E+002                6
 RTBSE| Simulation step         Convergence     Electron number  ETRS Iterations
 RTBSE|            2675     0.35332141E-007     0.10000000E+002                6
 RTBSE| Simulation step         Convergence     Electron number  ETRS Iterations
 RTBSE|            2676     0.55435456E-007     0.10000000E+002                6
 RTBSE| Simulation step         Convergence     Electron number  ETRS Iterations
 RTBSE|            2677     0.78096265E-007     0.10000000E+002                6
 RTBSE| Simulation step         Convergence     Electron number  ETRS Iterations
 RTBSE|            2678     0.17565652E-007     0.10000000E+002                7
 RTBSE| Simulation step         Convergence     Electron number  ETRS Iterations
 RTBSE|            2679     0.21671109E-007     0.10000000E+002                7
 RTBSE| Simulation step         Convergence     Electron number  ETRS Iterations
 RTBSE|            2680     0.25028920E-007     0.10000000E+002                7
 RTBSE| Simulation step         Convergence     Electron number  ETRS Iterations
 RTBSE|            2681     0.27458016E-007     0.10000000E+002                7
 RTBSE| Simulation step         Convergence     Electron number  ETRS Iterations
 RTBSE|            2682     0.28873217E-007     0.10000000E+002                7
 RTBSE| Simulation step         Convergence     Electron number  ETRS Iterations
 RTBSE|            2683     0.29278068E-007     0.10000000E+002                7
 RTBSE| Simulation step         Convergence     Electron number  ETRS Iterations
 RTBSE|            2684     0.28795345E-007     0.10000000E+002                7
 RTBSE| Simulation step         Convergence     Electron number  ETRS Iterations
 RTBSE|            2685     0.27599874E-007     0.10000000E+002                7
 RTBSE| Simulation step         Convergence     Electron number  ETRS Iterations
 RTBSE|            2686     0.25921659E-007     0.10000000E+002                7
 RTBSE| Simulation step         Convergence     Electron number  ETRS Iterations
 RTBSE|            2687     0.23970593E-007     0.10000000E+002                7
 RTBSE| Simulation step         Convergence     Electron number  ETRS Iterations
 RTBSE|            2688     0.21962011E-007     0.10000000E+002                7
 RTBSE| Simulation step         Convergence     Electron number  ETRS Iterations
 RTBSE|            2689     0.20010756E-007     0.10000000E+002                7
 RTBSE| Simulation step         Convergence     Electron number  ETRS Iterations
 RTBSE|            2690     0.18224984E-007     0.10000000E+002                7
 RTBSE| Simulation step         Convergence     Electron number  ETRS Iterations
 RTBSE|            2691     0.16625685E-007     0.10000000E+002                7
 RTBSE| Simulation step         Convergence     Electron number  ETRS Iterations
 RTBSE|            2692     0.99247581E-007     0.10000000E+002                6
 RTBSE| Simulation step         Convergence     Electron number  ETRS Iterations
 RTBSE|            2693     0.93405717E-007     0.10000000E+002                6
 RTBSE| Simulation step         Convergence     Electron number  ETRS Iterations
 RTBSE|            2694     0.87390047E-007     0.10000000E+002                6
 RTBSE| Simulation step         Convergence     Electron number  ETRS Iterations
 RTBSE|            2695     0.80670436E-007     0.10000000E+002                6
 RTBSE| Simulation step         Convergence     Electron number  ETRS Iterations
 RTBSE|            2696     0.72733371E-007     0.10000000E+002                6
 RTBSE| Simulation step         Convergence     Electron number  ETRS Iterations
 RTBSE|            2697     0.63233578E-007     0.10000000E+002                6
 RTBSE| Simulation step         Convergence     Electron number  ETRS Iterations
 RTBSE|            2698     0.52027457E-007     0.10000000E+002                6
 RTBSE| Simulation step         Convergence     Electron number  ETRS Iterations
 RTBSE|            2699     0.39194594E-007     0.10000000E+002                6
 RTBSE| Simulation step         Convergence     Electron number  ETRS Iterations
 RTBSE|            2700     0.25015557E-007     0.10000000E+002                6
 RTBSE| Simulation step         Convergence     Electron number  ETRS Iterations
 RTBSE|            2701     0.32019181E-007     0.10000000E+002                6
 RTBSE| Simulation step         Convergence     Electron number  ETRS Iterations
 RTBSE|            2702     0.45719299E-007     0.10000000E+002                6
 RTBSE| Simulation step         Convergence     Electron number  ETRS Iterations
 RTBSE|            2703     0.59140769E-007     0.10000000E+002                6
 RTBSE| Simulation step         Convergence     Electron number  ETRS Iterations
 RTBSE|            2704     0.71146110E-007     0.10000000E+002                6
 RTBSE| Simulation step         Convergence     Electron number  ETRS Iterations
 RTBSE|            2705     0.80956050E-007     0.10000000E+002                6
 RTBSE| Simulation step         Convergence     Electron number  ETRS Iterations
 RTBSE|            2706     0.88144381E-007     0.10000000E+002                6
 RTBSE| Simulation step         Convergence     Electron number  ETRS Iterations
 RTBSE|            2707     0.92565686E-007     0.10000000E+002                6
 RTBSE| Simulation step         Convergence     Electron number  ETRS Iterations
 RTBSE|            2708     0.94252183E-007     0.10000000E+002                6
 RTBSE| Simulation step         Convergence     Electron number  ETRS Iterations
 RTBSE|            2709     0.93568244E-007     0.10000000E+002                6
 RTBSE| Simulation step         Convergence     Electron number  ETRS Iterations
 RTBSE|            2710     0.90932928E-007     0.10000000E+002                6
 RTBSE| Simulation step         Convergence     Electron number  ETRS Iterations
 RTBSE|            2711     0.86981996E-007     0.10000000E+002                6
 RTBSE| Simulation step         Convergence     Electron number  ETRS Iterations
 RTBSE|            2712     0.83173779E-007     0.10000000E+002                6
 RTBSE| Simulation step         Convergence     Electron number  ETRS Iterations
 RTBSE|            2713     0.81003956E-007     0.10000000E+002                6
 RTBSE| Simulation step         Convergence     Electron number  ETRS Iterations
 RTBSE|            2714     0.78975184E-007     0.10000000E+002                6
 RTBSE| Simulation step         Convergence     Electron number  ETRS Iterations
 RTBSE|            2715     0.77550644E-007     0.10000000E+002                6
 RTBSE| Simulation step         Convergence     Electron number  ETRS Iterations
 RTBSE|            2716     0.77177620E-007     0.10000000E+002                6
 RTBSE| Simulation step         Convergence     Electron number  ETRS Iterations
 RTBSE|            2717     0.78626869E-007     0.10000000E+002                6
 RTBSE| Simulation step         Convergence     Electron number  ETRS Iterations
 RTBSE|            2718     0.80614823E-007     0.10000000E+002                6
 RTBSE| Simulation step         Convergence     Electron number  ETRS Iterations
 RTBSE|            2719     0.82633353E-007     0.10000000E+002                6
 RTBSE| Simulation step         Convergence     Electron number  ETRS Iterations
 RTBSE|            2720     0.83875480E-007     0.10000000E+002                6
 RTBSE| Simulation step         Convergence     Electron number  ETRS Iterations
 RTBSE|            2721     0.83412746E-007     0.10000000E+002                6
 RTBSE| Simulation step         Convergence     Electron number  ETRS Iterations
 RTBSE|            2722     0.80244534E-007     0.10000000E+002                6
 RTBSE| Simulation step         Convergence     Electron number  ETRS Iterations
 RTBSE|            2723     0.73469914E-007     0.10000000E+002                6
 RTBSE| Simulation step         Convergence     Electron number  ETRS Iterations
 RTBSE|            2724     0.62456493E-007     0.10000000E+002                6
 RTBSE| Simulation step         Convergence     Electron number  ETRS Iterations
 RTBSE|            2725     0.46940949E-007     0.10000000E+002                6
 RTBSE| Simulation step         Convergence     Electron number  ETRS Iterations
 RTBSE|            2726     0.33079909E-007     0.10000000E+002                6
 RTBSE| Simulation step         Convergence     Electron number  ETRS Iterations
 RTBSE|            2727     0.52460435E-007     0.10000000E+002                6
 RTBSE| Simulation step         Convergence     Electron number  ETRS Iterations
 RTBSE|            2728     0.74583195E-007     0.10000000E+002                6
 RTBSE| Simulation step         Convergence     Electron number  ETRS Iterations
 RTBSE|            2729     0.96529194E-007     0.10000000E+002                6
 RTBSE| Simulation step         Convergence     Electron number  ETRS Iterations
 RTBSE|            2730     0.20864058E-007     0.10000000E+002                7
 RTBSE| Simulation step         Convergence     Electron number  ETRS Iterations
 RTBSE|            2731     0.24142732E-007     0.10000000E+002                7
 RTBSE| Simulation step         Convergence     Electron number  ETRS Iterations
 RTBSE|            2732     0.26521194E-007     0.10000000E+002                7
 RTBSE| Simulation step         Convergence     Electron number  ETRS Iterations
 RTBSE|            2733     0.27920710E-007     0.10000000E+002                7
 RTBSE| Simulation step         Convergence     Electron number  ETRS Iterations
 RTBSE|            2734     0.28371889E-007     0.10000000E+002                7
 RTBSE| Simulation step         Convergence     Electron number  ETRS Iterations
 RTBSE|            2735     0.28008034E-007     0.10000000E+002                7
 RTBSE| Simulation step         Convergence     Electron number  ETRS Iterations
 RTBSE|            2736     0.27023699E-007     0.10000000E+002                7
 RTBSE| Simulation step         Convergence     Electron number  ETRS Iterations
 RTBSE|            2737     0.25595523E-007     0.10000000E+002                7
 RTBSE| Simulation step         Convergence     Electron number  ETRS Iterations
 RTBSE|            2738     0.23951282E-007     0.10000000E+002                7
 RTBSE| Simulation step         Convergence     Electron number  ETRS Iterations
 RTBSE|            2739     0.22259842E-007     0.10000000E+002                7
 RTBSE| Simulation step         Convergence     Electron number  ETRS Iterations
 RTBSE|            2740     0.20620930E-007     0.10000000E+002                7
 RTBSE| Simulation step         Convergence     Electron number  ETRS Iterations
 RTBSE|            2741     0.19131260E-007     0.10000000E+002                7
 RTBSE| Simulation step         Convergence     Electron number  ETRS Iterations
 RTBSE|            2742     0.17744519E-007     0.10000000E+002                7
 RTBSE| Simulation step         Convergence     Electron number  ETRS Iterations
 RTBSE|            2743     0.16406787E-007     0.10000000E+002                7
 RTBSE| Simulation step         Convergence     Electron number  ETRS Iterations
 RTBSE|            2744     0.15029773E-007     0.10000000E+002                7
 RTBSE| Simulation step         Convergence     Electron number  ETRS Iterations
 RTBSE|            2745     0.94530776E-007     0.10000000E+002                6
 RTBSE| Simulation step         Convergence     Electron number  ETRS Iterations
 RTBSE|            2746     0.87787077E-007     0.10000000E+002                6
 RTBSE| Simulation step         Convergence     Electron number  ETRS Iterations
 RTBSE|            2747     0.79474450E-007     0.10000000E+002                6
 RTBSE| Simulation step         Convergence     Electron number  ETRS Iterations
 RTBSE|            2748     0.69312159E-007     0.10000000E+002                6
 RTBSE| Simulation step         Convergence     Electron number  ETRS Iterations
 RTBSE|            2749     0.57237505E-007     0.10000000E+002                6
 RTBSE| Simulation step         Convergence     Electron number  ETRS Iterations
 RTBSE|            2750     0.43416367E-007     0.10000000E+002                6
 RTBSE| Simulation step         Convergence     Electron number  ETRS Iterations
 RTBSE|            2751     0.28235889E-007     0.10000000E+002                6
 RTBSE| Simulation step         Convergence     Electron number  ETRS Iterations
 RTBSE|            2752     0.31277217E-007     0.10000000E+002                6
 RTBSE| Simulation step         Convergence     Electron number  ETRS Iterations
 RTBSE|            2753     0.45454791E-007     0.10000000E+002                6
 RTBSE| Simulation step         Convergence     Electron number  ETRS Iterations
 RTBSE|            2754     0.59333395E-007     0.10000000E+002                6
 RTBSE| Simulation step         Convergence     Electron number  ETRS Iterations
 RTBSE|            2755     0.71594351E-007     0.10000000E+002                6
 RTBSE| Simulation step         Convergence     Electron number  ETRS Iterations
 RTBSE|            2756     0.81437008E-007     0.10000000E+002                6
 RTBSE| Simulation step         Convergence     Electron number  ETRS Iterations
 RTBSE|            2757     0.88493710E-007     0.10000000E+002                6
 RTBSE| Simulation step         Convergence     Electron number  ETRS Iterations
 RTBSE|            2758     0.92603389E-007     0.10000000E+002                6
 RTBSE| Simulation step         Convergence     Electron number  ETRS Iterations
 RTBSE|            2759     0.93829707E-007     0.10000000E+002                6
 RTBSE| Simulation step         Convergence     Electron number  ETRS Iterations
 RTBSE|            2760     0.92593615E-007     0.10000000E+002                6
 RTBSE| Simulation step         Convergence     Electron number  ETRS Iterations
 RTBSE|            2761     0.89448348E-007     0.10000000E+002                6
 RTBSE| Simulation step         Convergence     Electron number  ETRS Iterations
 RTBSE|            2762     0.85097260E-007     0.10000000E+002                6
 RTBSE| Simulation step         Convergence     Electron number  ETRS Iterations
 RTBSE|            2763     0.80636351E-007     0.10000000E+002                6
 RTBSE| Simulation step         Convergence     Electron number  ETRS Iterations
 RTBSE|            2764     0.78178269E-007     0.10000000E+002                6
 RTBSE| Simulation step         Convergence     Electron number  ETRS Iterations
 RTBSE|            2765     0.76090103E-007     0.10000000E+002                6
 RTBSE| Simulation step         Convergence     Electron number  ETRS Iterations
 RTBSE|            2766     0.74846181E-007     0.10000000E+002                6
 RTBSE| Simulation step         Convergence     Electron number  ETRS Iterations
 RTBSE|            2767     0.74868278E-007     0.10000000E+002                6
 RTBSE| Simulation step         Convergence     Electron number  ETRS Iterations
 RTBSE|            2768     0.76900125E-007     0.10000000E+002                6
 RTBSE| Simulation step         Convergence     Electron number  ETRS Iterations
 RTBSE|            2769     0.79702925E-007     0.10000000E+002                6
 RTBSE| Simulation step         Convergence     Electron number  ETRS Iterations
 RTBSE|            2770     0.82650549E-007     0.10000000E+002                6
 RTBSE| Simulation step         Convergence     Electron number  ETRS Iterations
 RTBSE|            2771     0.84874592E-007     0.10000000E+002                6
 RTBSE| Simulation step         Convergence     Electron number  ETRS Iterations
 RTBSE|            2772     0.85373652E-007     0.10000000E+002                6
 RTBSE| Simulation step         Convergence     Electron number  ETRS Iterations
 RTBSE|            2773     0.83131717E-007     0.10000000E+002                6
 RTBSE| Simulation step         Convergence     Electron number  ETRS Iterations
 RTBSE|            2774     0.77239086E-007     0.10000000E+002                6
 RTBSE| Simulation step         Convergence     Electron number  ETRS Iterations
 RTBSE|            2775     0.67014530E-007     0.10000000E+002                6
 RTBSE| Simulation step         Convergence     Electron number  ETRS Iterations
 RTBSE|            2776     0.52218390E-007     0.10000000E+002                6
 RTBSE| Simulation step         Convergence     Electron number  ETRS Iterations
 RTBSE|            2777     0.33075609E-007     0.10000000E+002                6
 RTBSE| Simulation step         Convergence     Electron number  ETRS Iterations
 RTBSE|            2778     0.47002052E-007     0.10000000E+002                6
 RTBSE| Simulation step         Convergence     Electron number  ETRS Iterations
 RTBSE|            2779     0.68673994E-007     0.10000000E+002                6
 RTBSE| Simulation step         Convergence     Electron number  ETRS Iterations
 RTBSE|            2780     0.90581180E-007     0.10000000E+002                6
 RTBSE| Simulation step         Convergence     Electron number  ETRS Iterations
 RTBSE|            2781     0.19764417E-007     0.10000000E+002                7
 RTBSE| Simulation step         Convergence     Electron number  ETRS Iterations
 RTBSE|            2782     0.23124057E-007     0.10000000E+002                7
 RTBSE| Simulation step         Convergence     Electron number  ETRS Iterations
 RTBSE|            2783     0.25627845E-007     0.10000000E+002                7
 RTBSE| Simulation step         Convergence     Electron number  ETRS Iterations
 RTBSE|            2784     0.27188079E-007     0.10000000E+002                7
 RTBSE| Simulation step         Convergence     Electron number  ETRS Iterations
 RTBSE|            2785     0.27824575E-007     0.10000000E+002                7
 RTBSE| Simulation step         Convergence     Electron number  ETRS Iterations
 RTBSE|            2786     0.27665765E-007     0.10000000E+002                7
 RTBSE| Simulation step         Convergence     Electron number  ETRS Iterations
 RTBSE|            2787     0.26871618E-007     0.10000000E+002                7
 RTBSE| Simulation step         Convergence     Electron number  ETRS Iterations
 RTBSE|            2788     0.25671696E-007     0.10000000E+002                7
 RTBSE| Simulation step         Convergence     Electron number  ETRS Iterations
 RTBSE|            2789     0.24214371E-007     0.10000000E+002                7
 RTBSE| Simulation step         Convergence     Electron number  ETRS Iterations
 RTBSE|            2790     0.22726697E-007     0.10000000E+002                7
 RTBSE| Simulation step         Convergence     Electron number  ETRS Iterations
 RTBSE|            2791     0.21272242E-007     0.10000000E+002                7
 RTBSE| Simulation step         Convergence     Electron number  ETRS Iterations
 RTBSE|            2792     0.19909084E-007     0.10000000E+002                7
 RTBSE| Simulation step         Convergence     Electron number  ETRS Iterations
 RTBSE|            2793     0.18626114E-007     0.10000000E+002                7
 RTBSE| Simulation step         Convergence     Electron number  ETRS Iterations
 RTBSE|            2794     0.17368008E-007     0.10000000E+002                7
 RTBSE| Simulation step         Convergence     Electron number  ETRS Iterations
 RTBSE|            2795     0.16029213E-007     0.10000000E+002                7
 RTBSE| Simulation step         Convergence     Electron number  ETRS Iterations
 RTBSE|            2796     0.99747749E-007     0.10000000E+002                6
 RTBSE| Simulation step         Convergence     Electron number  ETRS Iterations
 RTBSE|            2797     0.92998093E-007     0.10000000E+002                6
 RTBSE| Simulation step         Convergence     Electron number  ETRS Iterations
 RTBSE|            2798     0.84402476E-007     0.10000000E+002                6
 RTBSE| Simulation step         Convergence     Electron number  ETRS Iterations
 RTBSE|            2799     0.73755462E-007     0.10000000E+002                6
 RTBSE| Simulation step         Convergence     Electron number  ETRS Iterations
 RTBSE|            2800     0.61048717E-007     0.10000000E+002                6
 RTBSE| Simulation step         Convergence     Electron number  ETRS Iterations
 RTBSE|            2801     0.46519387E-007     0.10000000E+002                6
 RTBSE| Simulation step         Convergence     Electron number  ETRS Iterations
 RTBSE|            2802     0.30579627E-007     0.10000000E+002                6
 RTBSE| Simulation step         Convergence     Electron number  ETRS Iterations
 RTBSE|            2803     0.30308215E-007     0.10000000E+002                6
 RTBSE| Simulation step         Convergence     Electron number  ETRS Iterations
 RTBSE|            2804     0.44648594E-007     0.10000000E+002                6
 RTBSE| Simulation step         Convergence     Electron number  ETRS Iterations
 RTBSE|            2805     0.58647194E-007     0.10000000E+002                6
 RTBSE| Simulation step         Convergence     Electron number  ETRS Iterations
 RTBSE|            2806     0.70830933E-007     0.10000000E+002                6
 RTBSE| Simulation step         Convergence     Electron number  ETRS Iterations
 RTBSE|            2807     0.80399780E-007     0.10000000E+002                6
 RTBSE| Simulation step         Convergence     Electron number  ETRS Iterations
 RTBSE|            2808     0.86996029E-007     0.10000000E+002                6
 RTBSE| Simulation step         Convergence     Electron number  ETRS Iterations
 RTBSE|            2809     0.90488780E-007     0.10000000E+002                6
 RTBSE| Simulation step         Convergence     Electron number  ETRS Iterations
 RTBSE|            2810     0.91113506E-007     0.10000000E+002                6
 RTBSE| Simulation step         Convergence     Electron number  ETRS Iterations
 RTBSE|            2811     0.89352207E-007     0.10000000E+002                6
 RTBSE| Simulation step         Convergence     Electron number  ETRS Iterations
 RTBSE|            2812     0.85860397E-007     0.10000000E+002                6
 RTBSE| Simulation step         Convergence     Electron number  ETRS Iterations
 RTBSE|            2813     0.81394541E-007     0.10000000E+002                6
 RTBSE| Simulation step         Convergence     Electron number  ETRS Iterations
 RTBSE|            2814     0.76773197E-007     0.10000000E+002                6
 RTBSE| Simulation step         Convergence     Electron number  ETRS Iterations
 RTBSE|            2815     0.73681591E-007     0.10000000E+002                6
 RTBSE| Simulation step         Convergence     Electron number  ETRS Iterations
 RTBSE|            2816     0.72010522E-007     0.10000000E+002                6
 RTBSE| Simulation step         Convergence     Electron number  ETRS Iterations
 RTBSE|            2817     0.71542379E-007     0.10000000E+002                6
 RTBSE| Simulation step         Convergence     Electron number  ETRS Iterations
 RTBSE|            2818     0.72479770E-007     0.10000000E+002                6
 RTBSE| Simulation step         Convergence     Electron number  ETRS Iterations
 RTBSE|            2819     0.75630898E-007     0.10000000E+002                6
 RTBSE| Simulation step         Convergence     Electron number  ETRS Iterations
 RTBSE|            2820     0.79654607E-007     0.10000000E+002                6
 RTBSE| Simulation step         Convergence     Electron number  ETRS Iterations
 RTBSE|            2821     0.83902139E-007     0.10000000E+002                6
 RTBSE| Simulation step         Convergence     Electron number  ETRS Iterations
 RTBSE|            2822     0.87522423E-007     0.10000000E+002                6
 RTBSE| Simulation step         Convergence     Electron number  ETRS Iterations
 RTBSE|            2823     0.89410639E-007     0.10000000E+002                6
 RTBSE| Simulation step         Convergence     Electron number  ETRS Iterations
 RTBSE|            2824     0.88463118E-007     0.10000000E+002                6
 RTBSE| Simulation step         Convergence     Electron number  ETRS Iterations
 RTBSE|            2825     0.83668374E-007     0.10000000E+002                6
 RTBSE| Simulation step         Convergence     Electron number  ETRS Iterations
 RTBSE|            2826     0.74332030E-007     0.10000000E+002                6
 RTBSE| Simulation step         Convergence     Electron number  ETRS Iterations
 RTBSE|            2827     0.60157469E-007     0.10000000E+002                6
 RTBSE| Simulation step         Convergence     Electron number  ETRS Iterations
 RTBSE|            2828     0.41366142E-007     0.10000000E+002                6
 RTBSE| Simulation step         Convergence     Electron number  ETRS Iterations
 RTBSE|            2829     0.41626608E-007     0.10000000E+002                6
 RTBSE| Simulation step         Convergence     Electron number  ETRS Iterations
 RTBSE|            2830     0.63253462E-007     0.10000000E+002                6
 RTBSE| Simulation step         Convergence     Electron number  ETRS Iterations
 RTBSE|            2831     0.85827417E-007     0.10000000E+002                6
 RTBSE| Simulation step         Convergence     Electron number  ETRS Iterations
 RTBSE|            2832     0.19035760E-007     0.10000000E+002                7
 RTBSE| Simulation step         Convergence     Electron number  ETRS Iterations
 RTBSE|            2833     0.22656657E-007     0.10000000E+002                7
 RTBSE| Simulation step         Convergence     Electron number  ETRS Iterations
 RTBSE|            2834     0.25390296E-007     0.10000000E+002                7
 RTBSE| Simulation step         Convergence     Electron number  ETRS Iterations
 RTBSE|            2835     0.27149593E-007     0.10000000E+002                7
 RTBSE| Simulation step         Convergence     Electron number  ETRS Iterations
 RTBSE|            2836     0.27951538E-007     0.10000000E+002                7
 RTBSE| Simulation step         Convergence     Electron number  ETRS Iterations
 RTBSE|            2837     0.27905318E-007     0.10000000E+002                7
 RTBSE| Simulation step         Convergence     Electron number  ETRS Iterations
 RTBSE|            2838     0.27186203E-007     0.10000000E+002                7
 RTBSE| Simulation step         Convergence     Electron number  ETRS Iterations
 RTBSE|            2839     0.26009372E-007     0.10000000E+002                7
 RTBSE| Simulation step         Convergence     Electron number  ETRS Iterations
 RTBSE|            2840     0.24599992E-007     0.10000000E+002                7
 RTBSE| Simulation step         Convergence     Electron number  ETRS Iterations
 RTBSE|            2841     0.23115108E-007     0.10000000E+002                7
 RTBSE| Simulation step         Convergence     Electron number  ETRS Iterations
 RTBSE|            2842     0.21650140E-007     0.10000000E+002                7
 RTBSE| Simulation step         Convergence     Electron number  ETRS Iterations
 RTBSE|            2843     0.20311153E-007     0.10000000E+002                7
 RTBSE| Simulation step         Convergence     Electron number  ETRS Iterations
 RTBSE|            2844     0.19062162E-007     0.10000000E+002                7
 RTBSE| Simulation step         Convergence     Electron number  ETRS Iterations
 RTBSE|            2845     0.17827381E-007     0.10000000E+002                7
 RTBSE| Simulation step         Convergence     Electron number  ETRS Iterations
 RTBSE|            2846     0.16496937E-007     0.10000000E+002                7
 RTBSE| Simulation step         Convergence     Electron number  ETRS Iterations
 RTBSE|            2847     0.14983069E-007     0.10000000E+002                7
 RTBSE| Simulation step         Convergence     Electron number  ETRS Iterations
 RTBSE|            2848     0.95172633E-007     0.10000000E+002                6
 RTBSE| Simulation step         Convergence     Electron number  ETRS Iterations
 RTBSE|            2849     0.86467543E-007     0.10000000E+002                6
 RTBSE| Simulation step         Convergence     Electron number  ETRS Iterations
 RTBSE|            2850     0.75652967E-007     0.10000000E+002                6
 RTBSE| Simulation step         Convergence     Electron number  ETRS Iterations
 RTBSE|            2851     0.62756239E-007     0.10000000E+002                6
 RTBSE| Simulation step         Convergence     Electron number  ETRS Iterations
 RTBSE|            2852     0.48011914E-007     0.10000000E+002                6
 RTBSE| Simulation step         Convergence     Electron number  ETRS Iterations
 RTBSE|            2853     0.31958389E-007     0.10000000E+002                6
 RTBSE| Simulation step         Convergence     Electron number  ETRS Iterations
 RTBSE|            2854     0.28509042E-007     0.10000000E+002                6
 RTBSE| Simulation step         Convergence     Electron number  ETRS Iterations
 RTBSE|            2855     0.42391228E-007     0.10000000E+002                6
 RTBSE| Simulation step         Convergence     Electron number  ETRS Iterations
 RTBSE|            2856     0.55993305E-007     0.10000000E+002                6
 RTBSE| Simulation step         Convergence     Electron number  ETRS Iterations
 RTBSE|            2857     0.67729293E-007     0.10000000E+002                6
 RTBSE| Simulation step         Convergence     Electron number  ETRS Iterations
 RTBSE|            2858     0.76862470E-007     0.10000000E+002                6
 RTBSE| Simulation step         Convergence     Electron number  ETRS Iterations
 RTBSE|            2859     0.83013519E-007     0.10000000E+002                6
 RTBSE| Simulation step         Convergence     Electron number  ETRS Iterations
 RTBSE|            2860     0.86166382E-007     0.10000000E+002                6
 RTBSE| Simulation step         Convergence     Electron number  ETRS Iterations
 RTBSE|            2861     0.86584750E-007     0.10000000E+002                6
 RTBSE| Simulation step         Convergence     Electron number  ETRS Iterations
 RTBSE|            2862     0.84832958E-007     0.10000000E+002                6
 RTBSE| Simulation step         Convergence     Electron number  ETRS Iterations
 RTBSE|            2863     0.81536405E-007     0.10000000E+002                6
 RTBSE| Simulation step         Convergence     Electron number  ETRS Iterations
 RTBSE|            2864     0.77583839E-007     0.10000000E+002                6
 RTBSE| Simulation step         Convergence     Electron number  ETRS Iterations
 RTBSE|            2865     0.73722421E-007     0.10000000E+002                6
 RTBSE| Simulation step         Convergence     Electron number  ETRS Iterations
 RTBSE|            2866     0.70606164E-007     0.10000000E+002                6
 RTBSE| Simulation step         Convergence     Electron number  ETRS Iterations
 RTBSE|            2867     0.68906664E-007     0.10000000E+002                6
 RTBSE| Simulation step         Convergence     Electron number  ETRS Iterations
 RTBSE|            2868     0.69543631E-007     0.10000000E+002                6
 RTBSE| Simulation step         Convergence     Electron number  ETRS Iterations
 RTBSE|            2869     0.71667144E-007     0.10000000E+002                6
 RTBSE| Simulation step         Convergence     Electron number  ETRS Iterations
 RTBSE|            2870     0.75851179E-007     0.10000000E+002                6
 RTBSE| Simulation step         Convergence     Electron number  ETRS Iterations
 RTBSE|            2871     0.81221664E-007     0.10000000E+002                6
 RTBSE| Simulation step         Convergence     Electron number  ETRS Iterations
 RTBSE|            2872     0.86832424E-007     0.10000000E+002                6
 RTBSE| Simulation step         Convergence     Electron number  ETRS Iterations
 RTBSE|            2873     0.91690741E-007     0.10000000E+002                6
 RTBSE| Simulation step         Convergence     Electron number  ETRS Iterations
 RTBSE|            2874     0.94651564E-007     0.10000000E+002                6
 RTBSE| Simulation step         Convergence     Electron number  ETRS Iterations
 RTBSE|            2875     0.94545673E-007     0.10000000E+002                6
 RTBSE| Simulation step         Convergence     Electron number  ETRS Iterations
 RTBSE|            2876     0.90339325E-007     0.10000000E+002                6
 RTBSE| Simulation step         Convergence     Electron number  ETRS Iterations
 RTBSE|            2877     0.81276915E-007     0.10000000E+002                6
 RTBSE| Simulation step         Convergence     Electron number  ETRS Iterations
 RTBSE|            2878     0.67023372E-007     0.10000000E+002                6
 RTBSE| Simulation step         Convergence     Electron number  ETRS Iterations
 RTBSE|            2879     0.47767166E-007     0.10000000E+002                6
 RTBSE| Simulation step         Convergence     Electron number  ETRS Iterations
 RTBSE|            2880     0.38576558E-007     0.10000000E+002                6
 RTBSE| Simulation step         Convergence     Electron number  ETRS Iterations
 RTBSE|            2881     0.60317819E-007     0.10000000E+002                6
 RTBSE| Simulation step         Convergence     Electron number  ETRS Iterations
 RTBSE|            2882     0.83459316E-007     0.10000000E+002                6
 RTBSE| Simulation step         Convergence     Electron number  ETRS Iterations
 RTBSE|            2883     0.18769439E-007     0.10000000E+002                7
 RTBSE| Simulation step         Convergence     Electron number  ETRS Iterations
 RTBSE|            2884     0.22506746E-007     0.10000000E+002                7
 RTBSE| Simulation step         Convergence     Electron number  ETRS Iterations
 RTBSE|            2885     0.25311210E-007     0.10000000E+002                7
 RTBSE| Simulation step         Convergence     Electron number  ETRS Iterations
 RTBSE|            2886     0.27092931E-007     0.10000000E+002                7
 RTBSE| Simulation step         Convergence     Electron number  ETRS Iterations
 RTBSE|            2887     0.27871835E-007     0.10000000E+002                7
 RTBSE| Simulation step         Convergence     Electron number  ETRS Iterations
 RTBSE|            2888     0.27781704E-007     0.10000000E+002                7
 RTBSE| Simulation step         Convergence     Electron number  ETRS Iterations
 RTBSE|            2889     0.26997003E-007     0.10000000E+002                7
 RTBSE| Simulation step         Convergence     Electron number  ETRS Iterations
 RTBSE|            2890     0.25765988E-007     0.10000000E+002                7
 RTBSE| Simulation step         Convergence     Electron number  ETRS Iterations
 RTBSE|            2891     0.24317305E-007     0.10000000E+002                7
 RTBSE| Simulation step         Convergence     Electron number  ETRS Iterations
 RTBSE|            2892     0.22840853E-007     0.10000000E+002                7
 RTBSE| Simulation step         Convergence     Electron number  ETRS Iterations
 RTBSE|            2893     0.21426200E-007     0.10000000E+002                7
 RTBSE| Simulation step         Convergence     Electron number  ETRS Iterations
 RTBSE|            2894     0.20155945E-007     0.10000000E+002                7
 RTBSE| Simulation step         Convergence     Electron number  ETRS Iterations
 RTBSE|            2895     0.18985947E-007     0.10000000E+002                7
 RTBSE| Simulation step         Convergence     Electron number  ETRS Iterations
 RTBSE|            2896     0.17830736E-007     0.10000000E+002                7
 RTBSE| Simulation step         Convergence     Electron number  ETRS Iterations
 RTBSE|            2897     0.16614881E-007     0.10000000E+002                7
 RTBSE| Simulation step         Convergence     Electron number  ETRS Iterations
 RTBSE|            2898     0.15214337E-007     0.10000000E+002                7
 RTBSE| Simulation step         Convergence     Electron number  ETRS Iterations
 RTBSE|            2899     0.95648849E-007     0.10000000E+002                6
 RTBSE| Simulation step         Convergence     Electron number  ETRS Iterations
 RTBSE|            2900     0.87421210E-007     0.10000000E+002                6
 RTBSE| Simulation step         Convergence     Electron number  ETRS Iterations
 RTBSE|            2901     0.77077777E-007     0.10000000E+002                6
 RTBSE| Simulation step         Convergence     Electron number  ETRS Iterations
 RTBSE|            2902     0.64691476E-007     0.10000000E+002                6
 RTBSE| Simulation step         Convergence     Electron number  ETRS Iterations
 RTBSE|            2903     0.50568349E-007     0.10000000E+002                6
 RTBSE| Simulation step         Convergence     Electron number  ETRS Iterations
 RTBSE|            2904     0.35167140E-007     0.10000000E+002                6
 RTBSE| Simulation step         Convergence     Electron number  ETRS Iterations
 RTBSE|            2905     0.24419629E-007     0.10000000E+002                6
 RTBSE| Simulation step         Convergence     Electron number  ETRS Iterations
 RTBSE|            2906     0.37345655E-007     0.10000000E+002                6
 RTBSE| Simulation step         Convergence     Electron number  ETRS Iterations
 RTBSE|            2907     0.50533967E-007     0.10000000E+002                6
 RTBSE| Simulation step         Convergence     Electron number  ETRS Iterations
 RTBSE|            2908     0.62105557E-007     0.10000000E+002                6
 RTBSE| Simulation step         Convergence     Electron number  ETRS Iterations
 RTBSE|            2909     0.71227149E-007     0.10000000E+002                6
 RTBSE| Simulation step         Convergence     Electron number  ETRS Iterations
 RTBSE|            2910     0.77569887E-007     0.10000000E+002                6
 RTBSE| Simulation step         Convergence     Electron number  ETRS Iterations
 RTBSE|            2911     0.81091935E-007     0.10000000E+002                6
 RTBSE| Simulation step         Convergence     Electron number  ETRS Iterations
 RTBSE|            2912     0.82060515E-007     0.10000000E+002                6
 RTBSE| Simulation step         Convergence     Electron number  ETRS Iterations
 RTBSE|            2913     0.80972463E-007     0.10000000E+002                6
 RTBSE| Simulation step         Convergence     Electron number  ETRS Iterations
 RTBSE|            2914     0.78551186E-007     0.10000000E+002                6
 RTBSE| Simulation step         Convergence     Electron number  ETRS Iterations
 RTBSE|            2915     0.75533318E-007     0.10000000E+002                6
 RTBSE| Simulation step         Convergence     Electron number  ETRS Iterations
 RTBSE|            2916     0.72716850E-007     0.10000000E+002                6
 RTBSE| Simulation step         Convergence     Electron number  ETRS Iterations
 RTBSE|            2917     0.70683942E-007     0.10000000E+002                6
 RTBSE| Simulation step         Convergence     Electron number  ETRS Iterations
 RTBSE|            2918     0.69839043E-007     0.10000000E+002                6
 RTBSE| Simulation step         Convergence     Electron number  ETRS Iterations
 RTBSE|            2919     0.70322363E-007     0.10000000E+002                6
 RTBSE| Simulation step         Convergence     Electron number  ETRS Iterations
 RTBSE|            2920     0.72981427E-007     0.10000000E+002                6
 RTBSE| Simulation step         Convergence     Electron number  ETRS Iterations
 RTBSE|            2921     0.77907428E-007     0.10000000E+002                6
 RTBSE| Simulation step         Convergence     Electron number  ETRS Iterations
 RTBSE|            2922     0.84191057E-007     0.10000000E+002                6
 RTBSE| Simulation step         Convergence     Electron number  ETRS Iterations
 RTBSE|            2923     0.90562965E-007     0.10000000E+002                6
 RTBSE| Simulation step         Convergence     Electron number  ETRS Iterations
 RTBSE|            2924     0.95999949E-007     0.10000000E+002                6
 RTBSE| Simulation step         Convergence     Electron number  ETRS Iterations
 RTBSE|            2925     0.99358986E-007     0.10000000E+002                6
 RTBSE| Simulation step         Convergence     Electron number  ETRS Iterations
 RTBSE|            2926     0.99454051E-007     0.10000000E+002                6
 RTBSE| Simulation step         Convergence     Electron number  ETRS Iterations
 RTBSE|            2927     0.95199492E-007     0.10000000E+002                6
 RTBSE| Simulation step         Convergence     Electron number  ETRS Iterations
 RTBSE|            2928     0.85835473E-007     0.10000000E+002                6
 RTBSE| Simulation step         Convergence     Electron number  ETRS Iterations
 RTBSE|            2929     0.71128238E-007     0.10000000E+002                6
 RTBSE| Simulation step         Convergence     Electron number  ETRS Iterations
 RTBSE|            2930     0.51385085E-007     0.10000000E+002                6
 RTBSE| Simulation step         Convergence     Electron number  ETRS Iterations
 RTBSE|            2931     0.36467049E-007     0.10000000E+002                6
 RTBSE| Simulation step         Convergence     Electron number  ETRS Iterations
 RTBSE|            2932     0.57840131E-007     0.10000000E+002                6
 RTBSE| Simulation step         Convergence     Electron number  ETRS Iterations
 RTBSE|            2933     0.80898119E-007     0.10000000E+002                6
 RTBSE| Simulation step         Convergence     Electron number  ETRS Iterations
 RTBSE|            2934     0.18352695E-007     0.10000000E+002                7
 RTBSE| Simulation step         Convergence     Electron number  ETRS Iterations
 RTBSE|            2935     0.22076819E-007     0.10000000E+002                7
 RTBSE| Simulation step         Convergence     Electron number  ETRS Iterations
 RTBSE|            2936     0.24845392E-007     0.10000000E+002                7
 RTBSE| Simulation step         Convergence     Electron number  ETRS Iterations
 RTBSE|            2937     0.26568773E-007     0.10000000E+002                7
 RTBSE| Simulation step         Convergence     Electron number  ETRS Iterations
 RTBSE|            2938     0.27301673E-007     0.10000000E+002                7
 RTBSE| Simulation step         Convergence     Electron number  ETRS Iterations
 RTBSE|            2939     0.27172520E-007     0.10000000E+002                7
 RTBSE| Simulation step         Convergence     Electron number  ETRS Iterations
 RTBSE|            2940     0.26379834E-007     0.10000000E+002                7
 RTBSE| Simulation step         Convergence     Electron number  ETRS Iterations
 RTBSE|            2941     0.25171160E-007     0.10000000E+002                7
 RTBSE| Simulation step         Convergence     Electron number  ETRS Iterations
 RTBSE|            2942     0.23764566E-007     0.10000000E+002                7
 RTBSE| Simulation step         Convergence     Electron number  ETRS Iterations
 RTBSE|            2943     0.22349210E-007     0.10000000E+002                7
 RTBSE| Simulation step         Convergence     Electron number  ETRS Iterations
 RTBSE|            2944     0.21037236E-007     0.10000000E+002                7
 RTBSE| Simulation step         Convergence     Electron number  ETRS Iterations
 RTBSE|            2945     0.19883143E-007     0.10000000E+002                7
 RTBSE| Simulation step         Convergence     Electron number  ETRS Iterations
 RTBSE|            2946     0.18859624E-007     0.10000000E+002                7
 RTBSE| Simulation step         Convergence     Electron number  ETRS Iterations
 RTBSE|            2947     0.17877148E-007     0.10000000E+002                7
 RTBSE| Simulation step         Convergence     Electron number  ETRS Iterations
 RTBSE|            2948     0.16842805E-007     0.10000000E+002                7
 RTBSE| Simulation step         Convergence     Electron number  ETRS Iterations
 RTBSE|            2949     0.15612512E-007     0.10000000E+002                7
 RTBSE| Simulation step         Convergence     Electron number  ETRS Iterations
 RTBSE|            2950     0.96989230E-007     0.10000000E+002                6
 RTBSE| Simulation step         Convergence     Electron number  ETRS Iterations
 RTBSE|            2951     0.89852865E-007     0.10000000E+002                6
 RTBSE| Simulation step         Convergence     Electron number  ETRS Iterations
 RTBSE|            2952     0.80593061E-007     0.10000000E+002                6
 RTBSE| Simulation step         Convergence     Electron number  ETRS Iterations
 RTBSE|            2953     0.69201264E-007     0.10000000E+002                6
 RTBSE| Simulation step         Convergence     Electron number  ETRS Iterations
 RTBSE|            2954     0.55892329E-007     0.10000000E+002                6
 RTBSE| Simulation step         Convergence     Electron number  ETRS Iterations
 RTBSE|            2955     0.41065228E-007     0.10000000E+002                6
 RTBSE| Simulation step         Convergence     Electron number  ETRS Iterations
 RTBSE|            2956     0.25354188E-007     0.10000000E+002                6
 RTBSE| Simulation step         Convergence     Electron number  ETRS Iterations
 RTBSE|            2957     0.31494818E-007     0.10000000E+002                6
 RTBSE| Simulation step         Convergence     Electron number  ETRS Iterations
 RTBSE|            2958     0.44569400E-007     0.10000000E+002                6
 RTBSE| Simulation step         Convergence     Electron number  ETRS Iterations
 RTBSE|            2959     0.56548265E-007     0.10000000E+002                6
 RTBSE| Simulation step         Convergence     Electron number  ETRS Iterations
 RTBSE|            2960     0.66330142E-007     0.10000000E+002                6
 RTBSE| Simulation step         Convergence     Electron number  ETRS Iterations
 RTBSE|            2961     0.73464235E-007     0.10000000E+002                6
 RTBSE| Simulation step         Convergence     Electron number  ETRS Iterations
 RTBSE|            2962     0.77852122E-007     0.10000000E+002                6
 RTBSE| Simulation step         Convergence     Electron number  ETRS Iterations
 RTBSE|            2963     0.79727448E-007     0.10000000E+002                6
 RTBSE| Simulation step         Convergence     Electron number  ETRS Iterations
 RTBSE|            2964     0.79572133E-007     0.10000000E+002                6
 RTBSE| Simulation step         Convergence     Electron number  ETRS Iterations
 RTBSE|            2965     0.78078566E-007     0.10000000E+002                6
 RTBSE| Simulation step         Convergence     Electron number  ETRS Iterations
 RTBSE|            2966     0.76014082E-007     0.10000000E+002                6
 RTBSE| Simulation step         Convergence     Electron number  ETRS Iterations
 RTBSE|            2967     0.74035766E-007     0.10000000E+002                6
 RTBSE| Simulation step         Convergence     Electron number  ETRS Iterations
 RTBSE|            2968     0.72745631E-007     0.10000000E+002                6
 RTBSE| Simulation step         Convergence     Electron number  ETRS Iterations
 RTBSE|            2969     0.72496112E-007     0.10000000E+002                6
 RTBSE| Simulation step         Convergence     Electron number  ETRS Iterations
 RTBSE|            2970     0.73396838E-007     0.10000000E+002                6
 RTBSE| Simulation step         Convergence     Electron number  ETRS Iterations
 RTBSE|            2971     0.75475745E-007     0.10000000E+002                6
 RTBSE| Simulation step         Convergence     Electron number  ETRS Iterations
 RTBSE|            2972     0.80448250E-007     0.10000000E+002                6
 RTBSE| Simulation step         Convergence     Electron number  ETRS Iterations
 RTBSE|            2973     0.86877340E-007     0.10000000E+002                6
 RTBSE| Simulation step         Convergence     Electron number  ETRS Iterations
 RTBSE|            2974     0.93190353E-007     0.10000000E+002                6
 RTBSE| Simulation step         Convergence     Electron number  ETRS Iterations
 RTBSE|            2975     0.98386476E-007     0.10000000E+002                6
 RTBSE| Simulation step         Convergence     Electron number  ETRS Iterations
 RTBSE|            2976     0.14777540E-007     0.10000000E+002                7
 RTBSE| Simulation step         Convergence     Electron number  ETRS Iterations
 RTBSE|            2977     0.13732382E-007     0.10000000E+002                7
 RTBSE| Simulation step         Convergence     Electron number  ETRS Iterations
 RTBSE|            2978     0.96297923E-007     0.10000000E+002                6
 RTBSE| Simulation step         Convergence     Electron number  ETRS Iterations
 RTBSE|            2979     0.86653581E-007     0.10000000E+002                6
 RTBSE| Simulation step         Convergence     Electron number  ETRS Iterations
 RTBSE|            2980     0.71820812E-007     0.10000000E+002                6
 RTBSE| Simulation step         Convergence     Electron number  ETRS Iterations
 RTBSE|            2981     0.52146072E-007     0.10000000E+002                6
 RTBSE| Simulation step         Convergence     Electron number  ETRS Iterations
 RTBSE|            2982     0.34732335E-007     0.10000000E+002                6
 RTBSE| Simulation step         Convergence     Electron number  ETRS Iterations
 RTBSE|            2983     0.55277556E-007     0.10000000E+002                6
 RTBSE| Simulation step         Convergence     Electron number  ETRS Iterations
 RTBSE|            2984     0.77623125E-007     0.10000000E+002                6
 RTBSE| Simulation step         Convergence     Electron number  ETRS Iterations
 RTBSE|            2985     0.98480053E-007     0.10000000E+002                6
 RTBSE| Simulation step         Convergence     Electron number  ETRS Iterations
 RTBSE|            2986     0.21304805E-007     0.10000000E+002                7
 RTBSE| Simulation step         Convergence     Electron number  ETRS Iterations
 RTBSE|            2987     0.23989353E-007     0.10000000E+002                7
 RTBSE| Simulation step         Convergence     Electron number  ETRS Iterations
 RTBSE|            2988     0.25659772E-007     0.10000000E+002                7
 RTBSE| Simulation step         Convergence     Electron number  ETRS Iterations
 RTBSE|            2989     0.26370210E-007     0.10000000E+002                7
 RTBSE| Simulation step         Convergence     Electron number  ETRS Iterations
 RTBSE|            2990     0.26215765E-007     0.10000000E+002                7
 RTBSE| Simulation step         Convergence     Electron number  ETRS Iterations
 RTBSE|            2991     0.25459723E-007     0.10000000E+002                7
 RTBSE| Simulation step         Convergence     Electron number  ETRS Iterations
 RTBSE|            2992     0.24304193E-007     0.10000000E+002                7
 RTBSE| Simulation step         Convergence     Electron number  ETRS Iterations
 RTBSE|            2993     0.22968274E-007     0.10000000E+002                7
 RTBSE| Simulation step         Convergence     Electron number  ETRS Iterations
 RTBSE|            2994     0.21656523E-007     0.10000000E+002                7
 RTBSE| Simulation step         Convergence     Electron number  ETRS Iterations
 RTBSE|            2995     0.20485026E-007     0.10000000E+002                7
 RTBSE| Simulation step         Convergence     Electron number  ETRS Iterations
 RTBSE|            2996     0.19498153E-007     0.10000000E+002                7
 RTBSE| Simulation step         Convergence     Electron number  ETRS Iterations
 RTBSE|            2997     0.18679802E-007     0.10000000E+002                7
 RTBSE| Simulation step         Convergence     Electron number  ETRS Iterations
 RTBSE|            2998     0.17962645E-007     0.10000000E+002                7
 RTBSE| Simulation step         Convergence     Electron number  ETRS Iterations
 RTBSE|            2999     0.17182974E-007     0.10000000E+002                7
 RTBSE| Simulation step         Convergence     Electron number  ETRS Iterations
 RTBSE|            3000     0.16213408E-007     0.10000000E+002                7
 RTBSE| Simulation step         Convergence     Electron number  ETRS Iterations
 RTBSE|            3001     0.99672252E-007     0.10000000E+002                6
 RTBSE| Simulation step         Convergence     Electron number  ETRS Iterations
 RTBSE|            3002     0.93887841E-007     0.10000000E+002                6
 RTBSE| Simulation step         Convergence     Electron number  ETRS Iterations
 RTBSE|            3003     0.85711231E-007     0.10000000E+002                6
 RTBSE| Simulation step         Convergence     Electron number  ETRS Iterations
 RTBSE|            3004     0.75085843E-007     0.10000000E+002                6
 RTBSE| Simulation step         Convergence     Electron number  ETRS Iterations
 RTBSE|            3005     0.62249357E-007     0.10000000E+002                6
 RTBSE| Simulation step         Convergence     Electron number  ETRS Iterations
 RTBSE|            3006     0.47640025E-007     0.10000000E+002                6
 RTBSE| Simulation step         Convergence     Electron number  ETRS Iterations
 RTBSE|            3007     0.31885855E-007     0.10000000E+002                6
 RTBSE| Simulation step         Convergence     Electron number  ETRS Iterations
 RTBSE|            3008     0.26750887E-007     0.10000000E+002                6
 RTBSE| Simulation step         Convergence     Electron number  ETRS Iterations
 RTBSE|            3009     0.39833776E-007     0.10000000E+002                6
 RTBSE| Simulation step         Convergence     Electron number  ETRS Iterations
 RTBSE|            3010     0.52411181E-007     0.10000000E+002                6
 RTBSE| Simulation step         Convergence     Electron number  ETRS Iterations
 RTBSE|            3011     0.62975554E-007     0.10000000E+002                6
 RTBSE| Simulation step         Convergence     Electron number  ETRS Iterations
 RTBSE|            3012     0.70948390E-007     0.10000000E+002                6
 RTBSE| Simulation step         Convergence     Electron number  ETRS Iterations
 RTBSE|            3013     0.76192000E-007     0.10000000E+002                6
 RTBSE| Simulation step         Convergence     Electron number  ETRS Iterations
 RTBSE|            3014     0.78937379E-007     0.10000000E+002                6
 RTBSE| Simulation step         Convergence     Electron number  ETRS Iterations
 RTBSE|            3015     0.79509731E-007     0.10000000E+002                6
 RTBSE| Simulation step         Convergence     Electron number  ETRS Iterations
 RTBSE|            3016     0.78600884E-007     0.10000000E+002                6
 RTBSE| Simulation step         Convergence     Electron number  ETRS Iterations
 RTBSE|            3017     0.76927848E-007     0.10000000E+002                6
 RTBSE| Simulation step         Convergence     Electron number  ETRS Iterations
 RTBSE|            3018     0.75190438E-007     0.10000000E+002                6
 RTBSE| Simulation step         Convergence     Electron number  ETRS Iterations
 RTBSE|            3019     0.73961498E-007     0.10000000E+002                6
 RTBSE| Simulation step         Convergence     Electron number  ETRS Iterations
 RTBSE|            3020     0.73621622E-007     0.10000000E+002                6
 RTBSE| Simulation step         Convergence     Electron number  ETRS Iterations
 RTBSE|            3021     0.74282741E-007     0.10000000E+002                6
 RTBSE| Simulation step         Convergence     Electron number  ETRS Iterations
 RTBSE|            3022     0.75781516E-007     0.10000000E+002                6
 RTBSE| Simulation step         Convergence     Electron number  ETRS Iterations
 RTBSE|            3023     0.80307245E-007     0.10000000E+002                6
 RTBSE| Simulation step         Convergence     Electron number  ETRS Iterations
 RTBSE|            3024     0.86316201E-007     0.10000000E+002                6
 RTBSE| Simulation step         Convergence     Electron number  ETRS Iterations
 RTBSE|            3025     0.92217921E-007     0.10000000E+002                6
 RTBSE| Simulation step         Convergence     Electron number  ETRS Iterations
 RTBSE|            3026     0.97114142E-007     0.10000000E+002                6
 RTBSE| Simulation step         Convergence     Electron number  ETRS Iterations
 RTBSE|            3027     0.99934910E-007     0.10000000E+002                6
 RTBSE| Simulation step         Convergence     Electron number  ETRS Iterations
 RTBSE|            3028     0.99655543E-007     0.10000000E+002                6
 RTBSE| Simulation step         Convergence     Electron number  ETRS Iterations
 RTBSE|            3029     0.95335060E-007     0.10000000E+002                6
 RTBSE| Simulation step         Convergence     Electron number  ETRS Iterations
 RTBSE|            3030     0.86344058E-007     0.10000000E+002                6
 RTBSE| Simulation step         Convergence     Electron number  ETRS Iterations
 RTBSE|            3031     0.72410735E-007     0.10000000E+002                6
 RTBSE| Simulation step         Convergence     Electron number  ETRS Iterations
 RTBSE|            3032     0.53868236E-007     0.10000000E+002                6
 RTBSE| Simulation step         Convergence     Electron number  ETRS Iterations
 RTBSE|            3033     0.31467475E-007     0.10000000E+002                6
 RTBSE| Simulation step         Convergence     Electron number  ETRS Iterations
 RTBSE|            3034     0.50061078E-007     0.10000000E+002                6
 RTBSE| Simulation step         Convergence     Electron number  ETRS Iterations
 RTBSE|            3035     0.71436023E-007     0.10000000E+002                6
 RTBSE| Simulation step         Convergence     Electron number  ETRS Iterations
 RTBSE|            3036     0.91750378E-007     0.10000000E+002                6
 RTBSE| Simulation step         Convergence     Electron number  ETRS Iterations
 RTBSE|            3037     0.20020632E-007     0.10000000E+002                7
 RTBSE| Simulation step         Convergence     Electron number  ETRS Iterations
 RTBSE|            3038     0.22703474E-007     0.10000000E+002                7
 RTBSE| Simulation step         Convergence     Electron number  ETRS Iterations
 RTBSE|            3039     0.24412576E-007     0.10000000E+002                7
 RTBSE| Simulation step         Convergence     Electron number  ETRS Iterations
 RTBSE|            3040     0.25176933E-007     0.10000000E+002                7
 RTBSE| Simulation step         Convergence     Electron number  ETRS Iterations
 RTBSE|            3041     0.25139356E-007     0.10000000E+002                7
 RTBSE| Simulation step         Convergence     Electron number  ETRS Iterations
 RTBSE|            3042     0.24482639E-007     0.10000000E+002                7
 RTBSE| Simulation step         Convergence     Electron number  ETRS Iterations
 RTBSE|            3043     0.23431138E-007     0.10000000E+002                7
 RTBSE| Simulation step         Convergence     Electron number  ETRS Iterations
 RTBSE|            3044     0.22237416E-007     0.10000000E+002                7
 RTBSE| Simulation step         Convergence     Electron number  ETRS Iterations
 RTBSE|            3045     0.21074557E-007     0.10000000E+002                7
 RTBSE| Simulation step         Convergence     Electron number  ETRS Iterations
 RTBSE|            3046     0.20071380E-007     0.10000000E+002                7
 RTBSE| Simulation step         Convergence     Electron number  ETRS Iterations
 RTBSE|            3047     0.19303103E-007     0.10000000E+002                7
 RTBSE| Simulation step         Convergence     Electron number  ETRS Iterations
 RTBSE|            3048     0.18727991E-007     0.10000000E+002                7
 RTBSE| Simulation step         Convergence     Electron number  ETRS Iterations
 RTBSE|            3049     0.18233368E-007     0.10000000E+002                7
 RTBSE| Simulation step         Convergence     Electron number  ETRS Iterations
 RTBSE|            3050     0.17686308E-007     0.10000000E+002                7
 RTBSE| Simulation step         Convergence     Electron number  ETRS Iterations
 RTBSE|            3051     0.16951764E-007     0.10000000E+002                7
 RTBSE| Simulation step         Convergence     Electron number  ETRS Iterations
 RTBSE|            3052     0.15881984E-007     0.10000000E+002                7
 RTBSE| Simulation step         Convergence     Electron number  ETRS Iterations
 RTBSE|            3053     0.98421819E-007     0.10000000E+002                6
 RTBSE| Simulation step         Convergence     Electron number  ETRS Iterations
 RTBSE|            3054     0.91085173E-007     0.10000000E+002                6
 RTBSE| Simulation step         Convergence     Electron number  ETRS Iterations
 RTBSE|            3055     0.81060608E-007     0.10000000E+002                6
 RTBSE| Simulation step         Convergence     Electron number  ETRS Iterations
 RTBSE|            3056     0.68563294E-007     0.10000000E+002                6
 RTBSE| Simulation step         Convergence     Electron number  ETRS Iterations
 RTBSE|            3057     0.54042063E-007     0.10000000E+002                6
 RTBSE| Simulation step         Convergence     Electron number  ETRS Iterations
 RTBSE|            3058     0.38163497E-007     0.10000000E+002                6
 RTBSE| Simulation step         Convergence     Electron number  ETRS Iterations
 RTBSE|            3059     0.22771951E-007     0.10000000E+002                6
 RTBSE| Simulation step         Convergence     Electron number  ETRS Iterations
 RTBSE|            3060     0.35384097E-007     0.10000000E+002                6
 RTBSE| Simulation step         Convergence     Electron number  ETRS Iterations
 RTBSE|            3061     0.48501749E-007     0.10000000E+002                6
 RTBSE| Simulation step         Convergence     Electron number  ETRS Iterations
 RTBSE|            3062     0.59923644E-007     0.10000000E+002                6
 RTBSE| Simulation step         Convergence     Electron number  ETRS Iterations
 RTBSE|            3063     0.68841716E-007     0.10000000E+002                6
 RTBSE| Simulation step         Convergence     Electron number  ETRS Iterations
 RTBSE|            3064     0.74945807E-007     0.10000000E+002                6
 RTBSE| Simulation step         Convergence     Electron number  ETRS Iterations
 RTBSE|            3065     0.78391372E-007     0.10000000E+002                6
 RTBSE| Simulation step         Convergence     Electron number  ETRS Iterations
 RTBSE|            3066     0.79487875E-007     0.10000000E+002                6
 RTBSE| Simulation step         Convergence     Electron number  ETRS Iterations
 RTBSE|            3067     0.78906117E-007     0.10000000E+002                6
 RTBSE| Simulation step         Convergence     Electron number  ETRS Iterations
 RTBSE|            3068     0.77320057E-007     0.10000000E+002                6
 RTBSE| Simulation step         Convergence     Electron number  ETRS Iterations
 RTBSE|            3069     0.75479222E-007     0.10000000E+002                6
 RTBSE| Simulation step         Convergence     Electron number  ETRS Iterations
 RTBSE|            3070     0.73985891E-007     0.10000000E+002                6
 RTBSE| Simulation step         Convergence     Electron number  ETRS Iterations
 RTBSE|            3071     0.73223736E-007     0.10000000E+002                6
 RTBSE| Simulation step         Convergence     Electron number  ETRS Iterations
 RTBSE|            3072     0.73449778E-007     0.10000000E+002                6
 RTBSE| Simulation step         Convergence     Electron number  ETRS Iterations
 RTBSE|            3073     0.74601745E-007     0.10000000E+002                6
 RTBSE| Simulation step         Convergence     Electron number  ETRS Iterations
 RTBSE|            3074     0.78253916E-007     0.10000000E+002                6
 RTBSE| Simulation step         Convergence     Electron number  ETRS Iterations
 RTBSE|            3075     0.83907191E-007     0.10000000E+002                6
 RTBSE| Simulation step         Convergence     Electron number  ETRS Iterations
 RTBSE|            3076     0.89669075E-007     0.10000000E+002                6
 RTBSE| Simulation step         Convergence     Electron number  ETRS Iterations
 RTBSE|            3077     0.94664190E-007     0.10000000E+002                6
 RTBSE| Simulation step         Convergence     Electron number  ETRS Iterations
 RTBSE|            3078     0.97911735E-007     0.10000000E+002                6
 RTBSE| Simulation step         Convergence     Electron number  ETRS Iterations
 RTBSE|            3079     0.98370457E-007     0.10000000E+002                6
 RTBSE| Simulation step         Convergence     Electron number  ETRS Iterations
 RTBSE|            3080     0.95118271E-007     0.10000000E+002                6
 RTBSE| Simulation step         Convergence     Electron number  ETRS Iterations
 RTBSE|            3081     0.87428292E-007     0.10000000E+002                6
 RTBSE| Simulation step         Convergence     Electron number  ETRS Iterations
 RTBSE|            3082     0.74958757E-007     0.10000000E+002                6
 RTBSE| Simulation step         Convergence     Electron number  ETRS Iterations
 RTBSE|            3083     0.57869701E-007     0.10000000E+002                6
 RTBSE| Simulation step         Convergence     Electron number  ETRS Iterations
 RTBSE|            3084     0.36785056E-007     0.10000000E+002                6
 RTBSE| Simulation step         Convergence     Electron number  ETRS Iterations
 RTBSE|            3085     0.43785281E-007     0.10000000E+002                6
 RTBSE| Simulation step         Convergence     Electron number  ETRS Iterations
 RTBSE|            3086     0.64364235E-007     0.10000000E+002                6
 RTBSE| Simulation step         Convergence     Electron number  ETRS Iterations
 RTBSE|            3087     0.84446457E-007     0.10000000E+002                6
 RTBSE| Simulation step         Convergence     Electron number  ETRS Iterations
 RTBSE|            3088     0.18664655E-007     0.10000000E+002                7
 RTBSE| Simulation step         Convergence     Electron number  ETRS Iterations
 RTBSE|            3089     0.21450084E-007     0.10000000E+002                7
 RTBSE| Simulation step         Convergence     Electron number  ETRS Iterations
 RTBSE|            3090     0.23304344E-007     0.10000000E+002                7
 RTBSE| Simulation step         Convergence     Electron number  ETRS Iterations
 RTBSE|            3091     0.24232230E-007     0.10000000E+002                7
 RTBSE| Simulation step         Convergence     Electron number  ETRS Iterations
 RTBSE|            3092     0.24341256E-007     0.10000000E+002                7
 RTBSE| Simulation step         Convergence     Electron number  ETRS Iterations
 RTBSE|            3093     0.23830210E-007     0.10000000E+002                7
 RTBSE| Simulation step         Convergence     Electron number  ETRS Iterations
 RTBSE|            3094     0.22939126E-007     0.10000000E+002                7
 RTBSE| Simulation step         Convergence     Electron number  ETRS Iterations
 RTBSE|            3095     0.21891360E-007     0.10000000E+002                7
 RTBSE| Simulation step         Convergence     Electron number  ETRS Iterations
 RTBSE|            3096     0.20861085E-007     0.10000000E+002                7
 RTBSE| Simulation step         Convergence     Electron number  ETRS Iterations
 RTBSE|            3097     0.19995161E-007     0.10000000E+002                7
 RTBSE| Simulation step         Convergence     Electron number  ETRS Iterations
 RTBSE|            3098     0.19341292E-007     0.10000000E+002                7
 RTBSE| Simulation step         Convergence     Electron number  ETRS Iterations
 RTBSE|            3099     0.18874842E-007     0.10000000E+002                7
 RTBSE| Simulation step         Convergence     Electron number  ETRS Iterations
 RTBSE|            3100     0.18527143E-007     0.10000000E+002                7
 RTBSE| Simulation step         Convergence     Electron number  ETRS Iterations
 RTBSE|            3101     0.18116314E-007     0.10000000E+002                7
 RTBSE| Simulation step         Convergence     Electron number  ETRS Iterations
 RTBSE|            3102     0.17517837E-007     0.10000000E+002                7
 RTBSE| Simulation step         Convergence     Electron number  ETRS Iterations
 RTBSE|            3103     0.16570496E-007     0.10000000E+002                7
 RTBSE| Simulation step         Convergence     Electron number  ETRS Iterations
 RTBSE|            3104     0.15173054E-007     0.10000000E+002                7
 RTBSE| Simulation step         Convergence     Electron number  ETRS Iterations
 RTBSE|            3105     0.94984399E-007     0.10000000E+002                6
 RTBSE| Simulation step         Convergence     Electron number  ETRS Iterations
 RTBSE|            3106     0.85472160E-007     0.10000000E+002                6
 RTBSE| Simulation step         Convergence     Electron number  ETRS Iterations
 RTBSE|            3107     0.73338943E-007     0.10000000E+002                6
 RTBSE| Simulation step         Convergence     Electron number  ETRS Iterations
 RTBSE|            3108     0.58987234E-007     0.10000000E+002                6
 RTBSE| Simulation step         Convergence     Electron number  ETRS Iterations
 RTBSE|            3109     0.43103010E-007     0.10000000E+002                6
 RTBSE| Simulation step         Convergence     Electron number  ETRS Iterations
 RTBSE|            3110     0.26401299E-007     0.10000000E+002                6
 RTBSE| Simulation step         Convergence     Electron number  ETRS Iterations
 RTBSE|            3111     0.31810836E-007     0.10000000E+002                6
 RTBSE| Simulation step         Convergence     Electron number  ETRS Iterations
 RTBSE|            3112     0.45288485E-007     0.10000000E+002                6
 RTBSE| Simulation step         Convergence     Electron number  ETRS Iterations
 RTBSE|            3113     0.57305980E-007     0.10000000E+002                6
 RTBSE| Simulation step         Convergence     Electron number  ETRS Iterations
 RTBSE|            3114     0.66843380E-007     0.10000000E+002                6
 RTBSE| Simulation step         Convergence     Electron number  ETRS Iterations
 RTBSE|            3115     0.73490361E-007     0.10000000E+002                6
 RTBSE| Simulation step         Convergence     Electron number  ETRS Iterations
 RTBSE|            3116     0.77292487E-007     0.10000000E+002                6
 RTBSE| Simulation step         Convergence     Electron number  ETRS Iterations
 RTBSE|            3117     0.78617686E-007     0.10000000E+002                6
 RTBSE| Simulation step         Convergence     Electron number  ETRS Iterations
 RTBSE|            3118     0.78022573E-007     0.10000000E+002                6
 RTBSE| Simulation step         Convergence     Electron number  ETRS Iterations
 RTBSE|            3119     0.76242784E-007     0.10000000E+002                6
 RTBSE| Simulation step         Convergence     Electron number  ETRS Iterations
 RTBSE|            3120     0.74035968E-007     0.10000000E+002                6
 RTBSE| Simulation step         Convergence     Electron number  ETRS Iterations
 RTBSE|            3121     0.72106365E-007     0.10000000E+002                6
 RTBSE| Simulation step         Convergence     Electron number  ETRS Iterations
 RTBSE|            3122     0.70981288E-007     0.10000000E+002                6
 RTBSE| Simulation step         Convergence     Electron number  ETRS Iterations
 RTBSE|            3123     0.70924928E-007     0.10000000E+002                6
 RTBSE| Simulation step         Convergence     Electron number  ETRS Iterations
 RTBSE|            3124     0.71898640E-007     0.10000000E+002                6
 RTBSE| Simulation step         Convergence     Electron number  ETRS Iterations
 RTBSE|            3125     0.74558650E-007     0.10000000E+002                6
 RTBSE| Simulation step         Convergence     Electron number  ETRS Iterations
 RTBSE|            3126     0.80114459E-007     0.10000000E+002                6
 RTBSE| Simulation step         Convergence     Electron number  ETRS Iterations
 RTBSE|            3127     0.86064330E-007     0.10000000E+002                6
 RTBSE| Simulation step         Convergence     Electron number  ETRS Iterations
 RTBSE|            3128     0.91616130E-007     0.10000000E+002                6
 RTBSE| Simulation step         Convergence     Electron number  ETRS Iterations
 RTBSE|            3129     0.95739785E-007     0.10000000E+002                6
 RTBSE| Simulation step         Convergence     Electron number  ETRS Iterations
 RTBSE|            3130     0.97356486E-007     0.10000000E+002                6
 RTBSE| Simulation step         Convergence     Electron number  ETRS Iterations
 RTBSE|            3131     0.95454556E-007     0.10000000E+002                6
 RTBSE| Simulation step         Convergence     Electron number  ETRS Iterations
 RTBSE|            3132     0.89279206E-007     0.10000000E+002                6
 RTBSE| Simulation step         Convergence     Electron number  ETRS Iterations
 RTBSE|            3133     0.78377249E-007     0.10000000E+002                6
 RTBSE| Simulation step         Convergence     Electron number  ETRS Iterations
 RTBSE|            3134     0.62787018E-007     0.10000000E+002                6
 RTBSE| Simulation step         Convergence     Electron number  ETRS Iterations
 RTBSE|            3135     0.43042000E-007     0.10000000E+002                6
 RTBSE| Simulation step         Convergence     Electron number  ETRS Iterations
 RTBSE|            3136     0.37307036E-007     0.10000000E+002                6
 RTBSE| Simulation step         Convergence     Electron number  ETRS Iterations
 RTBSE|            3137     0.56914739E-007     0.10000000E+002                6
 RTBSE| Simulation step         Convergence     Electron number  ETRS Iterations
 RTBSE|            3138     0.76846108E-007     0.10000000E+002                6
 RTBSE| Simulation step         Convergence     Electron number  ETRS Iterations
 RTBSE|            3139     0.94668475E-007     0.10000000E+002                6
 RTBSE| Simulation step         Convergence     Electron number  ETRS Iterations
 RTBSE|            3140     0.20198145E-007     0.10000000E+002                7
 RTBSE| Simulation step         Convergence     Electron number  ETRS Iterations
 RTBSE|            3141     0.22216669E-007     0.10000000E+002                7
 RTBSE| Simulation step         Convergence     Electron number  ETRS Iterations
 RTBSE|            3142     0.23341378E-007     0.10000000E+002                7
 RTBSE| Simulation step         Convergence     Electron number  ETRS Iterations
 RTBSE|            3143     0.23642373E-007     0.10000000E+002                7
 RTBSE| Simulation step         Convergence     Electron number  ETRS Iterations
 RTBSE|            3144     0.23307040E-007     0.10000000E+002                7
 RTBSE| Simulation step         Convergence     Electron number  ETRS Iterations
 RTBSE|            3145     0.22556173E-007     0.10000000E+002                7
 RTBSE| Simulation step         Convergence     Electron number  ETRS Iterations
 RTBSE|            3146     0.21614637E-007     0.10000000E+002                7
 RTBSE| Simulation step         Convergence     Electron number  ETRS Iterations
 RTBSE|            3147     0.20656068E-007     0.10000000E+002                7
 RTBSE| Simulation step         Convergence     Electron number  ETRS Iterations
 RTBSE|            3148     0.19833988E-007     0.10000000E+002                7
 RTBSE| Simulation step         Convergence     Electron number  ETRS Iterations
 RTBSE|            3149     0.19214427E-007     0.10000000E+002                7
 RTBSE| Simulation step         Convergence     Electron number  ETRS Iterations
 RTBSE|            3150     0.18804905E-007     0.10000000E+002                7
 RTBSE| Simulation step         Convergence     Electron number  ETRS Iterations
 RTBSE|            3151     0.18511473E-007     0.10000000E+002                7
 RTBSE| Simulation step         Convergence     Electron number  ETRS Iterations
 RTBSE|            3152     0.18202247E-007     0.10000000E+002                7
 RTBSE| Simulation step         Convergence     Electron number  ETRS Iterations
 RTBSE|            3153     0.17702485E-007     0.10000000E+002                7
 RTBSE| Simulation step         Convergence     Electron number  ETRS Iterations
 RTBSE|            3154     0.16896322E-007     0.10000000E+002                7
 RTBSE| Simulation step         Convergence     Electron number  ETRS Iterations
 RTBSE|            3155     0.15646344E-007     0.10000000E+002                7
 RTBSE| Simulation step         Convergence     Electron number  ETRS Iterations
 RTBSE|            3156     0.96946497E-007     0.10000000E+002                6
 RTBSE| Simulation step         Convergence     Electron number  ETRS Iterations
 RTBSE|            3157     0.88121544E-007     0.10000000E+002                6
 RTBSE| Simulation step         Convergence     Electron number  ETRS Iterations
 RTBSE|            3158     0.76569925E-007     0.10000000E+002                6
 RTBSE| Simulation step         Convergence     Electron number  ETRS Iterations
 RTBSE|            3159     0.62688726E-007     0.10000000E+002                6
 RTBSE| Simulation step         Convergence     Electron number  ETRS Iterations
 RTBSE|            3160     0.47115013E-007     0.10000000E+002                6
 RTBSE| Simulation step         Convergence     Electron number  ETRS Iterations
 RTBSE|            3161     0.30589613E-007     0.10000000E+002                6
 RTBSE| Simulation step         Convergence     Electron number  ETRS Iterations
 RTBSE|            3162     0.27582267E-007     0.10000000E+002                6
 RTBSE| Simulation step         Convergence     Electron number  ETRS Iterations
 RTBSE|            3163     0.40762505E-007     0.10000000E+002                6
 RTBSE| Simulation step         Convergence     Electron number  ETRS Iterations
 RTBSE|            3164     0.52973742E-007     0.10000000E+002                6
 RTBSE| Simulation step         Convergence     Electron number  ETRS Iterations
 RTBSE|            3165     0.62797322E-007     0.10000000E+002                6
 RTBSE| Simulation step         Convergence     Electron number  ETRS Iterations
 RTBSE|            3166     0.69783620E-007     0.10000000E+002                6
 RTBSE| Simulation step         Convergence     Electron number  ETRS Iterations
 RTBSE|            3167     0.73890607E-007     0.10000000E+002                6
 RTBSE| Simulation step         Convergence     Electron number  ETRS Iterations
 RTBSE|            3168     0.75451075E-007     0.10000000E+002                6
 RTBSE| Simulation step         Convergence     Electron number  ETRS Iterations
 RTBSE|            3169     0.75048085E-007     0.10000000E+002                6
 RTBSE| Simulation step         Convergence     Electron number  ETRS Iterations
 RTBSE|            3170     0.73399061E-007     0.10000000E+002                6
 RTBSE| Simulation step         Convergence     Electron number  ETRS Iterations
 RTBSE|            3171     0.71288151E-007     0.10000000E+002                6
 RTBSE| Simulation step         Convergence     Electron number  ETRS Iterations
 RTBSE|            3172     0.69423855E-007     0.10000000E+002                6
 RTBSE| Simulation step         Convergence     Electron number  ETRS Iterations
 RTBSE|            3173     0.68379047E-007     0.10000000E+002                6
 RTBSE| Simulation step         Convergence     Electron number  ETRS Iterations
 RTBSE|            3174     0.68465327E-007     0.10000000E+002                6
 RTBSE| Simulation step         Convergence     Electron number  ETRS Iterations
 RTBSE|            3175     0.69740035E-007     0.10000000E+002                6
 RTBSE| Simulation step         Convergence     Electron number  ETRS Iterations
 RTBSE|            3176     0.71959860E-007     0.10000000E+002                6
 RTBSE| Simulation step         Convergence     Electron number  ETRS Iterations
 RTBSE|            3177     0.77133450E-007     0.10000000E+002                6
 RTBSE| Simulation step         Convergence     Electron number  ETRS Iterations
 RTBSE|            3178     0.83566668E-007     0.10000000E+002                6
 RTBSE| Simulation step         Convergence     Electron number  ETRS Iterations
 RTBSE|            3179     0.89780437E-007     0.10000000E+002                6
 RTBSE| Simulation step         Convergence     Electron number  ETRS Iterations
 RTBSE|            3180     0.94776603E-007     0.10000000E+002                6
 RTBSE| Simulation step         Convergence     Electron number  ETRS Iterations
 RTBSE|            3181     0.97490321E-007     0.10000000E+002                6
 RTBSE| Simulation step         Convergence     Electron number  ETRS Iterations
 RTBSE|            3182     0.96871222E-007     0.10000000E+002                6
 RTBSE| Simulation step         Convergence     Electron number  ETRS Iterations
 RTBSE|            3183     0.92083497E-007     0.10000000E+002                6
 RTBSE| Simulation step         Convergence     Electron number  ETRS Iterations
 RTBSE|            3184     0.82628718E-007     0.10000000E+002                6
 RTBSE| Simulation step         Convergence     Electron number  ETRS Iterations
 RTBSE|            3185     0.68432485E-007     0.10000000E+002                6
 RTBSE| Simulation step         Convergence     Electron number  ETRS Iterations
 RTBSE|            3186     0.49966502E-007     0.10000000E+002                6
 RTBSE| Simulation step         Convergence     Electron number  ETRS Iterations
 RTBSE|            3187     0.31220700E-007     0.10000000E+002                6
 RTBSE| Simulation step         Convergence     Electron number  ETRS Iterations
 RTBSE|            3188     0.49378366E-007     0.10000000E+002                6
 RTBSE| Simulation step         Convergence     Electron number  ETRS Iterations
 RTBSE|            3189     0.69083933E-007     0.10000000E+002                6
 RTBSE| Simulation step         Convergence     Electron number  ETRS Iterations
 RTBSE|            3190     0.87331764E-007     0.10000000E+002                6
 RTBSE| Simulation step         Convergence     Electron number  ETRS Iterations
 RTBSE|            3191     0.18907454E-007     0.10000000E+002                7
 RTBSE| Simulation step         Convergence     Electron number  ETRS Iterations
 RTBSE|            3192     0.21162525E-007     0.10000000E+002                7
 RTBSE| Simulation step         Convergence     Electron number  ETRS Iterations
 RTBSE|            3193     0.22500022E-007     0.10000000E+002                7
 RTBSE| Simulation step         Convergence     Electron number  ETRS Iterations
 RTBSE|            3194     0.23018889E-007     0.10000000E+002                7
 RTBSE| Simulation step         Convergence     Electron number  ETRS Iterations
 RTBSE|            3195     0.22861223E-007     0.10000000E+002                7
 RTBSE| Simulation step         Convergence     Electron number  ETRS Iterations
 RTBSE|            3196     0.22230345E-007     0.10000000E+002                7
 RTBSE| Simulation step         Convergence     Electron number  ETRS Iterations
 RTBSE|            3197     0.21389075E-007     0.10000000E+002                7
 RTBSE| Simulation step         Convergence     Electron number  ETRS Iterations
 RTBSE|            3198     0.20492928E-007     0.10000000E+002                7
 RTBSE| Simulation step         Convergence     Electron number  ETRS Iterations
 RTBSE|            3199     0.19713448E-007     0.10000000E+002                7
 RTBSE| Simulation step         Convergence     Electron number  ETRS Iterations
 RTBSE|            3200     0.19134254E-007     0.10000000E+002                7
 RTBSE| Simulation step         Convergence     Electron number  ETRS Iterations
 RTBSE|            3201     0.18747884E-007     0.10000000E+002                7
 RTBSE| Simulation step         Convergence     Electron number  ETRS Iterations
 RTBSE|            3202     0.18503752E-007     0.10000000E+002                7
 RTBSE| Simulation step         Convergence     Electron number  ETRS Iterations
 RTBSE|            3203     0.18266371E-007     0.10000000E+002                7
 RTBSE| Simulation step         Convergence     Electron number  ETRS Iterations
 RTBSE|            3204     0.17875617E-007     0.10000000E+002                7
 RTBSE| Simulation step         Convergence     Electron number  ETRS Iterations
 RTBSE|            3205     0.17173084E-007     0.10000000E+002                7
 RTBSE| Simulation step         Convergence     Electron number  ETRS Iterations
 RTBSE|            3206     0.16035138E-007     0.10000000E+002                7
 RTBSE| Simulation step         Convergence     Electron number  ETRS Iterations
 RTBSE|            3207     0.98195818E-007     0.10000000E+002                6
 RTBSE| Simulation step         Convergence     Electron number  ETRS Iterations
 RTBSE|            3208     0.90026408E-007     0.10000000E+002                6
 RTBSE| Simulation step         Convergence     Electron number  ETRS Iterations
 RTBSE|            3209     0.79163058E-007     0.10000000E+002                6
 RTBSE| Simulation step         Convergence     Electron number  ETRS Iterations
 RTBSE|            3210     0.65934738E-007     0.10000000E+002                6
 RTBSE| Simulation step         Convergence     Electron number  ETRS Iterations
 RTBSE|            3211     0.50944654E-007     0.10000000E+002                6
 RTBSE| Simulation step         Convergence     Electron number  ETRS Iterations
 RTBSE|            3212     0.34918441E-007     0.10000000E+002                6
 RTBSE| Simulation step         Convergence     Electron number  ETRS Iterations
 RTBSE|            3213     0.22945856E-007     0.10000000E+002                6
 RTBSE| Simulation step         Convergence     Electron number  ETRS Iterations
 RTBSE|            3214     0.35284764E-007     0.10000000E+002                6
 RTBSE| Simulation step         Convergence     Electron number  ETRS Iterations
 RTBSE|            3215     0.47386927E-007     0.10000000E+002                6
 RTBSE| Simulation step         Convergence     Electron number  ETRS Iterations
 RTBSE|            3216     0.57443873E-007     0.10000000E+002                6
 RTBSE| Simulation step         Convergence     Electron number  ETRS Iterations
 RTBSE|            3217     0.64843344E-007     0.10000000E+002                6
 RTBSE| Simulation step         Convergence     Electron number  ETRS Iterations
 RTBSE|            3218     0.69459882E-007     0.10000000E+002                6
 RTBSE| Simulation step         Convergence     Electron number  ETRS Iterations
 RTBSE|            3219     0.71579108E-007     0.10000000E+002                6
 RTBSE| Simulation step         Convergence     Electron number  ETRS Iterations
 RTBSE|            3220     0.71714977E-007     0.10000000E+002                6
 RTBSE| Simulation step         Convergence     Electron number  ETRS Iterations
 RTBSE|            3221     0.70609971E-007     0.10000000E+002                6
 RTBSE| Simulation step         Convergence     Electron number  ETRS Iterations
 RTBSE|            3222     0.68971677E-007     0.10000000E+002                6
 RTBSE| Simulation step         Convergence     Electron number  ETRS Iterations
 RTBSE|            3223     0.67576075E-007     0.10000000E+002                6
 RTBSE| Simulation step         Convergence     Electron number  ETRS Iterations
 RTBSE|            3224     0.66955106E-007     0.10000000E+002                6
 RTBSE| Simulation step         Convergence     Electron number  ETRS Iterations
 RTBSE|            3225     0.67442755E-007     0.10000000E+002                6
 RTBSE| Simulation step         Convergence     Electron number  ETRS Iterations
 RTBSE|            3226     0.69105732E-007     0.10000000E+002                6
 RTBSE| Simulation step         Convergence     Electron number  ETRS Iterations
 RTBSE|            3227     0.71734546E-007     0.10000000E+002                6
 RTBSE| Simulation step         Convergence     Electron number  ETRS Iterations
 RTBSE|            3228     0.75570372E-007     0.10000000E+002                6
 RTBSE| Simulation step         Convergence     Electron number  ETRS Iterations
 RTBSE|            3229     0.82394530E-007     0.10000000E+002                6
 RTBSE| Simulation step         Convergence     Electron number  ETRS Iterations
 RTBSE|            3230     0.89128056E-007     0.10000000E+002                6
 RTBSE| Simulation step         Convergence     Electron number  ETRS Iterations
 RTBSE|            3231     0.94794673E-007     0.10000000E+002                6
 RTBSE| Simulation step         Convergence     Electron number  ETRS Iterations
 RTBSE|            3232     0.98324246E-007     0.10000000E+002                6
 RTBSE| Simulation step         Convergence     Electron number  ETRS Iterations
 RTBSE|            3233     0.98648691E-007     0.10000000E+002                6
 RTBSE| Simulation step         Convergence     Electron number  ETRS Iterations
 RTBSE|            3234     0.94907229E-007     0.10000000E+002                6
 RTBSE| Simulation step         Convergence     Electron number  ETRS Iterations
 RTBSE|            3235     0.86582991E-007     0.10000000E+002                6
 RTBSE| Simulation step         Convergence     Electron number  ETRS Iterations
 RTBSE|            3236     0.73499650E-007     0.10000000E+002                6
 RTBSE| Simulation step         Convergence     Electron number  ETRS Iterations
 RTBSE|            3237     0.55951789E-007     0.10000000E+002                6
 RTBSE| Simulation step         Convergence     Electron number  ETRS Iterations
 RTBSE|            3238     0.34750246E-007     0.10000000E+002                6
 RTBSE| Simulation step         Convergence     Electron number  ETRS Iterations
 RTBSE|            3239     0.43611152E-007     0.10000000E+002                6
 RTBSE| Simulation step         Convergence     Electron number  ETRS Iterations
 RTBSE|            3240     0.63135427E-007     0.10000000E+002                6
 RTBSE| Simulation step         Convergence     Electron number  ETRS Iterations
 RTBSE|            3241     0.81736252E-007     0.10000000E+002                6
 RTBSE| Simulation step         Convergence     Electron number  ETRS Iterations
 RTBSE|            3242     0.97574612E-007     0.10000000E+002                6
 RTBSE| Simulation step         Convergence     Electron number  ETRS Iterations
 RTBSE|            3243     0.20376952E-007     0.10000000E+002                7
 RTBSE| Simulation step         Convergence     Electron number  ETRS Iterations
 RTBSE|            3244     0.21873662E-007     0.10000000E+002                7
 RTBSE| Simulation step         Convergence     Electron number  ETRS Iterations
 RTBSE|            3245     0.22511768E-007     0.10000000E+002                7
 RTBSE| Simulation step         Convergence     Electron number  ETRS Iterations
 RTBSE|            3246     0.22431950E-007     0.10000000E+002                7
 RTBSE| Simulation step         Convergence     Electron number  ETRS Iterations
 RTBSE|            3247     0.21863557E-007     0.10000000E+002                7
 RTBSE| Simulation step         Convergence     Electron number  ETRS Iterations
 RTBSE|            3248     0.21019009E-007     0.10000000E+002                7
 RTBSE| Simulation step         Convergence     Electron number  ETRS Iterations
 RTBSE|            3249     0.20099477E-007     0.10000000E+002                7
 RTBSE| Simulation step         Convergence     Electron number  ETRS Iterations
 RTBSE|            3250     0.19285388E-007     0.10000000E+002                7
 RTBSE| Simulation step         Convergence     Electron number  ETRS Iterations
 RTBSE|            3251     0.18670156E-007     0.10000000E+002                7
 RTBSE| Simulation step         Convergence     Electron number  ETRS Iterations
 RTBSE|            3252     0.18276484E-007     0.10000000E+002                7
 RTBSE| Simulation step         Convergence     Electron number  ETRS Iterations
 RTBSE|            3253     0.18039060E-007     0.10000000E+002                7
 RTBSE| Simulation step         Convergence     Electron number  ETRS Iterations
 RTBSE|            3254     0.17860821E-007     0.10000000E+002                7
 RTBSE| Simulation step         Convergence     Electron number  ETRS Iterations
 RTBSE|            3255     0.17582691E-007     0.10000000E+002                7
 RTBSE| Simulation step         Convergence     Electron number  ETRS Iterations
 RTBSE|            3256     0.17045430E-007     0.10000000E+002                7
 RTBSE| Simulation step         Convergence     Electron number  ETRS Iterations
 RTBSE|            3257     0.16132008E-007     0.10000000E+002                7
 RTBSE| Simulation step         Convergence     Electron number  ETRS Iterations
 RTBSE|            3258     0.97740006E-007     0.10000000E+002                6
 RTBSE| Simulation step         Convergence     Electron number  ETRS Iterations
 RTBSE|            3259     0.90875191E-007     0.10000000E+002                6
 RTBSE| Simulation step         Convergence     Electron number  ETRS Iterations
 RTBSE|            3260     0.81367045E-007     0.10000000E+002                6
 RTBSE| Simulation step         Convergence     Electron number  ETRS Iterations
 RTBSE|            3261     0.69494643E-007     0.10000000E+002                6
 RTBSE| Simulation step         Convergence     Electron number  ETRS Iterations
 RTBSE|            3262     0.55741446E-007     0.10000000E+002                6
 RTBSE| Simulation step         Convergence     Electron number  ETRS Iterations
 RTBSE|            3263     0.40764095E-007     0.10000000E+002                6
 RTBSE| Simulation step         Convergence     Electron number  ETRS Iterations
 RTBSE|            3264     0.25234486E-007     0.10000000E+002                6
 RTBSE| Simulation step         Convergence     Electron number  ETRS Iterations
 RTBSE|            3265     0.28342473E-007     0.10000000E+002                6
 RTBSE| Simulation step         Convergence     Electron number  ETRS Iterations
 RTBSE|            3266     0.40328714E-007     0.10000000E+002                6
 RTBSE| Simulation step         Convergence     Electron number  ETRS Iterations
 RTBSE|            3267     0.50850764E-007     0.10000000E+002                6
 RTBSE| Simulation step         Convergence     Electron number  ETRS Iterations
 RTBSE|            3268     0.58999476E-007     0.10000000E+002                6
 RTBSE| Simulation step         Convergence     Electron number  ETRS Iterations
 RTBSE|            3269     0.64572376E-007     0.10000000E+002                6
 RTBSE| Simulation step         Convergence     Electron number  ETRS Iterations
 RTBSE|            3270     0.67657502E-007     0.10000000E+002                6
 RTBSE| Simulation step         Convergence     Electron number  ETRS Iterations
 RTBSE|            3271     0.68786150E-007     0.10000000E+002                6
 RTBSE| Simulation step         Convergence     Electron number  ETRS Iterations
 RTBSE|            3272     0.68574397E-007     0.10000000E+002                6
 RTBSE| Simulation step         Convergence     Electron number  ETRS Iterations
 RTBSE|            3273     0.67706906E-007     0.10000000E+002                6
 RTBSE| Simulation step         Convergence     Electron number  ETRS Iterations
 RTBSE|            3274     0.66895992E-007     0.10000000E+002                6
 RTBSE| Simulation step         Convergence     Electron number  ETRS Iterations
 RTBSE|            3275     0.66708629E-007     0.10000000E+002                6
 RTBSE| Simulation step         Convergence     Electron number  ETRS Iterations
 RTBSE|            3276     0.67506633E-007     0.10000000E+002                6
 RTBSE| Simulation step         Convergence     Electron number  ETRS Iterations
 RTBSE|            3277     0.69394411E-007     0.10000000E+002                6
 RTBSE| Simulation step         Convergence     Electron number  ETRS Iterations
 RTBSE|            3278     0.72228200E-007     0.10000000E+002                6
 RTBSE| Simulation step         Convergence     Electron number  ETRS Iterations
 RTBSE|            3279     0.75554155E-007     0.10000000E+002                6
 RTBSE| Simulation step         Convergence     Electron number  ETRS Iterations
 RTBSE|            3280     0.81822040E-007     0.10000000E+002                6
 RTBSE| Simulation step         Convergence     Electron number  ETRS Iterations
 RTBSE|            3281     0.88772589E-007     0.10000000E+002                6
 RTBSE| Simulation step         Convergence     Electron number  ETRS Iterations
 RTBSE|            3282     0.94757346E-007     0.10000000E+002                6
 RTBSE| Simulation step         Convergence     Electron number  ETRS Iterations
 RTBSE|            3283     0.98758762E-007     0.10000000E+002                6
 RTBSE| Simulation step         Convergence     Electron number  ETRS Iterations
 RTBSE|            3284     0.99739014E-007     0.10000000E+002                6
 RTBSE| Simulation step         Convergence     Electron number  ETRS Iterations
 RTBSE|            3285     0.96750988E-007     0.10000000E+002                6
 RTBSE| Simulation step         Convergence     Electron number  ETRS Iterations
 RTBSE|            3286     0.89200468E-007     0.10000000E+002                6
 RTBSE| Simulation step         Convergence     Electron number  ETRS Iterations
 RTBSE|            3287     0.76842705E-007     0.10000000E+002                6
 RTBSE| Simulation step         Convergence     Electron number  ETRS Iterations
 RTBSE|            3288     0.59996412E-007     0.10000000E+002                6
 RTBSE| Simulation step         Convergence     Electron number  ETRS Iterations
 RTBSE|            3289     0.39408458E-007     0.10000000E+002                6
 RTBSE| Simulation step         Convergence     Electron number  ETRS Iterations
 RTBSE|            3290     0.38687774E-007     0.10000000E+002                6
 RTBSE| Simulation step         Convergence     Electron number  ETRS Iterations
 RTBSE|            3291     0.57588099E-007     0.10000000E+002                6
 RTBSE| Simulation step         Convergence     Electron number  ETRS Iterations
 RTBSE|            3292     0.76086587E-007     0.10000000E+002                6
 RTBSE| Simulation step         Convergence     Electron number  ETRS Iterations
 RTBSE|            3293     0.92082502E-007     0.10000000E+002                6
 RTBSE| Simulation step         Convergence     Electron number  ETRS Iterations
 RTBSE|            3294     0.19406800E-007     0.10000000E+002                7
 RTBSE| Simulation step         Convergence     Electron number  ETRS Iterations
 RTBSE|            3295     0.20980029E-007     0.10000000E+002                7
 RTBSE| Simulation step         Convergence     Electron number  ETRS Iterations
 RTBSE|            3296     0.21680731E-007     0.10000000E+002                7
 RTBSE| Simulation step         Convergence     Electron number  ETRS Iterations
 RTBSE|            3297     0.21666603E-007     0.10000000E+002                7
 RTBSE| Simulation step         Convergence     Electron number  ETRS Iterations
 RTBSE|            3298     0.21137528E-007     0.10000000E+002                7
 RTBSE| Simulation step         Convergence     Electron number  ETRS Iterations
 RTBSE|            3299     0.20274668E-007     0.10000000E+002                7
 RTBSE| Simulation step         Convergence     Electron number  ETRS Iterations
 RTBSE|            3300     0.19349391E-007     0.10000000E+002                7
 RTBSE| Simulation step         Convergence     Electron number  ETRS Iterations
 RTBSE|            3301     0.18496529E-007     0.10000000E+002                7
 RTBSE| Simulation step         Convergence     Electron number  ETRS Iterations
 RTBSE|            3302     0.96601302E-007     0.10000000E+002                6
 RTBSE| Simulation step         Convergence     Electron number  ETRS Iterations
 RTBSE|            3303     0.95999171E-007     0.10000000E+002                6
 RTBSE| Simulation step         Convergence     Electron number  ETRS Iterations
 RTBSE|            3304     0.96479555E-007     0.10000000E+002                6
 RTBSE| Simulation step         Convergence     Electron number  ETRS Iterations
 RTBSE|            3305     0.97821099E-007     0.10000000E+002                6
 RTBSE| Simulation step         Convergence     Electron number  ETRS Iterations
 RTBSE|            3306     0.99425512E-007     0.10000000E+002                6
 RTBSE| Simulation step         Convergence     Electron number  ETRS Iterations
 RTBSE|            3307     0.16935403E-007     0.10000000E+002                7
 RTBSE| Simulation step         Convergence     Electron number  ETRS Iterations
 RTBSE|            3308     0.16374064E-007     0.10000000E+002                7
 RTBSE| Simulation step         Convergence     Electron number  ETRS Iterations
 RTBSE|            3309     0.97976062E-007     0.10000000E+002                6
 RTBSE| Simulation step         Convergence     Electron number  ETRS Iterations
 RTBSE|            3310     0.93189223E-007     0.10000000E+002                6
 RTBSE| Simulation step         Convergence     Electron number  ETRS Iterations
 RTBSE|            3311     0.85761171E-007     0.10000000E+002                6
 RTBSE| Simulation step         Convergence     Electron number  ETRS Iterations
 RTBSE|            3312     0.75744649E-007     0.10000000E+002                6
 RTBSE| Simulation step         Convergence     Electron number  ETRS Iterations
 RTBSE|            3313     0.63495810E-007     0.10000000E+002                6
 RTBSE| Simulation step         Convergence     Electron number  ETRS Iterations
 RTBSE|            3314     0.49527602E-007     0.10000000E+002                6
 RTBSE| Simulation step         Convergence     Electron number  ETRS Iterations
 RTBSE|            3315     0.34531463E-007     0.10000000E+002                6
 RTBSE| Simulation step         Convergence     Electron number  ETRS Iterations
 RTBSE|            3316     0.21122719E-007     0.10000000E+002                6
 RTBSE| Simulation step         Convergence     Electron number  ETRS Iterations
 RTBSE|            3317     0.32578679E-007     0.10000000E+002                6
 RTBSE| Simulation step         Convergence     Electron number  ETRS Iterations
 RTBSE|            3318     0.43959865E-007     0.10000000E+002                6
 RTBSE| Simulation step         Convergence     Electron number  ETRS Iterations
 RTBSE|            3319     0.53475304E-007     0.10000000E+002                6
 RTBSE| Simulation step         Convergence     Electron number  ETRS Iterations
 RTBSE|            3320     0.60588021E-007     0.10000000E+002                6
 RTBSE| Simulation step         Convergence     Electron number  ETRS Iterations
 RTBSE|            3321     0.65186493E-007     0.10000000E+002                6
 RTBSE| Simulation step         Convergence     Electron number  ETRS Iterations
 RTBSE|            3322     0.67656003E-007     0.10000000E+002                6
 RTBSE| Simulation step         Convergence     Electron number  ETRS Iterations
 RTBSE|            3323     0.68509627E-007     0.10000000E+002                6
 RTBSE| Simulation step         Convergence     Electron number  ETRS Iterations
 RTBSE|            3324     0.68449125E-007     0.10000000E+002                6
 RTBSE| Simulation step         Convergence     Electron number  ETRS Iterations
 RTBSE|            3325     0.68094548E-007     0.10000000E+002                6
 RTBSE| Simulation step         Convergence     Electron number  ETRS Iterations
 RTBSE|            3326     0.68102097E-007     0.10000000E+002                6
 RTBSE| Simulation step         Convergence     Electron number  ETRS Iterations
 RTBSE|            3327     0.68868927E-007     0.10000000E+002                6
 RTBSE| Simulation step         Convergence     Electron number  ETRS Iterations
 RTBSE|            3328     0.70564876E-007     0.10000000E+002                6
 RTBSE| Simulation step         Convergence     Electron number  ETRS Iterations
 RTBSE|            3329     0.73150265E-007     0.10000000E+002                6
 RTBSE| Simulation step         Convergence     Electron number  ETRS Iterations
 RTBSE|            3330     0.76255498E-007     0.10000000E+002                6
 RTBSE| Simulation step         Convergence     Electron number  ETRS Iterations
 RTBSE|            3331     0.81357346E-007     0.10000000E+002                6
 RTBSE| Simulation step         Convergence     Electron number  ETRS Iterations
 RTBSE|            3332     0.88136304E-007     0.10000000E+002                6
 RTBSE| Simulation step         Convergence     Electron number  ETRS Iterations
 RTBSE|            3333     0.94089411E-007     0.10000000E+002                6
 RTBSE| Simulation step         Convergence     Electron number  ETRS Iterations
 RTBSE|            3334     0.98240395E-007     0.10000000E+002                6
 RTBSE| Simulation step         Convergence     Electron number  ETRS Iterations
 RTBSE|            3335     0.99538623E-007     0.10000000E+002                6
 RTBSE| Simulation step         Convergence     Electron number  ETRS Iterations
 RTBSE|            3336     0.97091627E-007     0.10000000E+002                6
 RTBSE| Simulation step         Convergence     Electron number  ETRS Iterations
 RTBSE|            3337     0.90285732E-007     0.10000000E+002                6
 RTBSE| Simulation step         Convergence     Electron number  ETRS Iterations
 RTBSE|            3338     0.78843651E-007     0.10000000E+002                6
 RTBSE| Simulation step         Convergence     Electron number  ETRS Iterations
 RTBSE|            3339     0.62985010E-007     0.10000000E+002                6
 RTBSE| Simulation step         Convergence     Electron number  ETRS Iterations
 RTBSE|            3340     0.43336212E-007     0.10000000E+002                6
 RTBSE| Simulation step         Convergence     Electron number  ETRS Iterations
 RTBSE|            3341     0.34011091E-007     0.10000000E+002                6
 RTBSE| Simulation step         Convergence     Electron number  ETRS Iterations
 RTBSE|            3342     0.52008113E-007     0.10000000E+002                6
 RTBSE| Simulation step         Convergence     Electron number  ETRS Iterations
 RTBSE|            3343     0.70247513E-007     0.10000000E+002                6
 RTBSE| Simulation step         Convergence     Electron number  ETRS Iterations
 RTBSE|            3344     0.86302147E-007     0.10000000E+002                6
 RTBSE| Simulation step         Convergence     Electron number  ETRS Iterations
 RTBSE|            3345     0.98914023E-007     0.10000000E+002                6
 RTBSE| Simulation step         Convergence     Electron number  ETRS Iterations
 RTBSE|            3346     0.20046854E-007     0.10000000E+002                7
 RTBSE| Simulation step         Convergence     Electron number  ETRS Iterations
 RTBSE|            3347     0.20823957E-007     0.10000000E+002                7
 RTBSE| Simulation step         Convergence     Electron number  ETRS Iterations
 RTBSE|            3348     0.20855971E-007     0.10000000E+002                7
 RTBSE| Simulation step         Convergence     Electron number  ETRS Iterations
 RTBSE|            3349     0.20319268E-007     0.10000000E+002                7
 RTBSE| Simulation step         Convergence     Electron number  ETRS Iterations
 RTBSE|            3350     0.19433289E-007     0.10000000E+002                7
 RTBSE| Simulation step         Convergence     Electron number  ETRS Iterations
 RTBSE|            3351     0.99979147E-007     0.10000000E+002                6
 RTBSE| Simulation step         Convergence     Electron number  ETRS Iterations
 RTBSE|            3352     0.95255445E-007     0.10000000E+002                6
 RTBSE| Simulation step         Convergence     Electron number  ETRS Iterations
 RTBSE|            3353     0.91658651E-007     0.10000000E+002                6
 RTBSE| Simulation step         Convergence     Electron number  ETRS Iterations
 RTBSE|            3354     0.89557723E-007     0.10000000E+002                6
 RTBSE| Simulation step         Convergence     Electron number  ETRS Iterations
 RTBSE|            3355     0.90263063E-007     0.10000000E+002                6
 RTBSE| Simulation step         Convergence     Electron number  ETRS Iterations
 RTBSE|            3356     0.92371386E-007     0.10000000E+002                6
 RTBSE| Simulation step         Convergence     Electron number  ETRS Iterations
 RTBSE|            3357     0.95258309E-007     0.10000000E+002                6
 RTBSE| Simulation step         Convergence     Electron number  ETRS Iterations
 RTBSE|            3358     0.98127795E-007     0.10000000E+002                6
 RTBSE| Simulation step         Convergence     Electron number  ETRS Iterations
 RTBSE|            3359     0.16900565E-007     0.10000000E+002                7
 RTBSE| Simulation step         Convergence     Electron number  ETRS Iterations
 RTBSE|            3360     0.16303993E-007     0.10000000E+002                7
 RTBSE| Simulation step         Convergence     Electron number  ETRS Iterations
 RTBSE|            3361     0.97567488E-007     0.10000000E+002                6
 RTBSE| Simulation step         Convergence     Electron number  ETRS Iterations
 RTBSE|            3362     0.92154108E-007     0.10000000E+002                6
 RTBSE| Simulation step         Convergence     Electron number  ETRS Iterations
 RTBSE|            3363     0.83768686E-007     0.10000000E+002                6
 RTBSE| Simulation step         Convergence     Electron number  ETRS Iterations
 RTBSE|            3364     0.72702592E-007     0.10000000E+002                6
 RTBSE| Simulation step         Convergence     Electron number  ETRS Iterations
 RTBSE|            3365     0.59427443E-007     0.10000000E+002                6
 RTBSE| Simulation step         Convergence     Electron number  ETRS Iterations
 RTBSE|            3366     0.44539553E-007     0.10000000E+002                6
 RTBSE| Simulation step         Convergence     Electron number  ETRS Iterations
 RTBSE|            3367     0.28829208E-007     0.10000000E+002                6
 RTBSE| Simulation step         Convergence     Electron number  ETRS Iterations
 RTBSE|            3368     0.26680720E-007     0.10000000E+002                6
 RTBSE| Simulation step         Convergence     Electron number  ETRS Iterations
 RTBSE|            3369     0.38957122E-007     0.10000000E+002                6
 RTBSE| Simulation step         Convergence     Electron number  ETRS Iterations
 RTBSE|            3370     0.50009930E-007     0.10000000E+002                6
 RTBSE| Simulation step         Convergence     Electron number  ETRS Iterations
 RTBSE|            3371     0.58745253E-007     0.10000000E+002                6
 RTBSE| Simulation step         Convergence     Electron number  ETRS Iterations
 RTBSE|            3372     0.64876238E-007     0.10000000E+002                6
 RTBSE| Simulation step         Convergence     Electron number  ETRS Iterations
 RTBSE|            3373     0.68585353E-007     0.10000000E+002                6
 RTBSE| Simulation step         Convergence     Electron number  ETRS Iterations
 RTBSE|            3374     0.70259589E-007     0.10000000E+002                6
 RTBSE| Simulation step         Convergence     Electron number  ETRS Iterations
 RTBSE|            3375     0.70573818E-007     0.10000000E+002                6
 RTBSE| Simulation step         Convergence     Electron number  ETRS Iterations
 RTBSE|            3376     0.70190196E-007     0.10000000E+002                6
 RTBSE| Simulation step         Convergence     Electron number  ETRS Iterations
 RTBSE|            3377     0.69755623E-007     0.10000000E+002                6
 RTBSE| Simulation step         Convergence     Electron number  ETRS Iterations
 RTBSE|            3378     0.69846749E-007     0.10000000E+002                6
 RTBSE| Simulation step         Convergence     Electron number  ETRS Iterations
 RTBSE|            3379     0.70690738E-007     0.10000000E+002                6
 RTBSE| Simulation step         Convergence     Electron number  ETRS Iterations
 RTBSE|            3380     0.72368042E-007     0.10000000E+002                6
 RTBSE| Simulation step         Convergence     Electron number  ETRS Iterations
 RTBSE|            3381     0.74705158E-007     0.10000000E+002                6
 RTBSE| Simulation step         Convergence     Electron number  ETRS Iterations
 RTBSE|            3382     0.78827860E-007     0.10000000E+002                6
 RTBSE| Simulation step         Convergence     Electron number  ETRS Iterations
 RTBSE|            3383     0.84833488E-007     0.10000000E+002                6
 RTBSE| Simulation step         Convergence     Electron number  ETRS Iterations
 RTBSE|            3384     0.90327808E-007     0.10000000E+002                6
 RTBSE| Simulation step         Convergence     Electron number  ETRS Iterations
 RTBSE|            3385     0.94403542E-007     0.10000000E+002                6
 RTBSE| Simulation step         Convergence     Electron number  ETRS Iterations
 RTBSE|            3386     0.96094605E-007     0.10000000E+002                6
 RTBSE| Simulation step         Convergence     Electron number  ETRS Iterations
 RTBSE|            3387     0.94518425E-007     0.10000000E+002                6
 RTBSE| Simulation step         Convergence     Electron number  ETRS Iterations
 RTBSE|            3388     0.88954069E-007     0.10000000E+002                6
 RTBSE| Simulation step         Convergence     Electron number  ETRS Iterations
 RTBSE|            3389     0.79033014E-007     0.10000000E+002                6
 RTBSE| Simulation step         Convergence     Electron number  ETRS Iterations
 RTBSE|            3390     0.64803740E-007     0.10000000E+002                6
 RTBSE| Simulation step         Convergence     Electron number  ETRS Iterations
 RTBSE|            3391     0.46805776E-007     0.10000000E+002                6
 RTBSE| Simulation step         Convergence     Electron number  ETRS Iterations
 RTBSE|            3392     0.28638138E-007     0.10000000E+002                6
 RTBSE| Simulation step         Convergence     Electron number  ETRS Iterations
 RTBSE|            3393     0.44997254E-007     0.10000000E+002                6
 RTBSE| Simulation step         Convergence     Electron number  ETRS Iterations
 RTBSE|            3394     0.62513856E-007     0.10000000E+002                6
 RTBSE| Simulation step         Convergence     Electron number  ETRS Iterations
 RTBSE|            3395     0.78367503E-007     0.10000000E+002                6
 RTBSE| Simulation step         Convergence     Electron number  ETRS Iterations
 RTBSE|            3396     0.91093589E-007     0.10000000E+002                6
 RTBSE| Simulation step         Convergence     Electron number  ETRS Iterations
 RTBSE|            3397     0.99883727E-007     0.10000000E+002                6
 RTBSE| Simulation step         Convergence     Electron number  ETRS Iterations
 RTBSE|            3398     0.19448358E-007     0.10000000E+002                7
 RTBSE| Simulation step         Convergence     Electron number  ETRS Iterations
 RTBSE|            3399     0.19573017E-007     0.10000000E+002                7
 RTBSE| Simulation step         Convergence     Electron number  ETRS Iterations
 RTBSE|            3400     0.19124982E-007     0.10000000E+002                7
 RTBSE| Simulation step         Convergence     Electron number  ETRS Iterations
 RTBSE|            3401     0.99410555E-007     0.10000000E+002                6
 RTBSE| Simulation step         Convergence     Electron number  ETRS Iterations
 RTBSE|            3402     0.94805541E-007     0.10000000E+002                6
 RTBSE| Simulation step         Convergence     Electron number  ETRS Iterations
 RTBSE|            3403     0.90652943E-007     0.10000000E+002                6
 RTBSE| Simulation step         Convergence     Electron number  ETRS Iterations
 RTBSE|            3404     0.87786372E-007     0.10000000E+002                6
 RTBSE| Simulation step         Convergence     Electron number  ETRS Iterations
 RTBSE|            3405     0.86599274E-007     0.10000000E+002                6
 RTBSE| Simulation step         Convergence     Electron number  ETRS Iterations
 RTBSE|            3406     0.87058646E-007     0.10000000E+002                6
 RTBSE| Simulation step         Convergence     Electron number  ETRS Iterations
 RTBSE|            3407     0.88987196E-007     0.10000000E+002                6
 RTBSE| Simulation step         Convergence     Electron number  ETRS Iterations
 RTBSE|            3408     0.93376028E-007     0.10000000E+002                6
 RTBSE| Simulation step         Convergence     Electron number  ETRS Iterations
 RTBSE|            3409     0.97968072E-007     0.10000000E+002                6
 RTBSE| Simulation step         Convergence     Electron number  ETRS Iterations
 RTBSE|            3410     0.17694166E-007     0.10000000E+002                7
 RTBSE| Simulation step         Convergence     Electron number  ETRS Iterations
 RTBSE|            3411     0.17418467E-007     0.10000000E+002                7
 RTBSE| Simulation step         Convergence     Electron number  ETRS Iterations
 RTBSE|            3412     0.16563581E-007     0.10000000E+002                7
 RTBSE| Simulation step         Convergence     Electron number  ETRS Iterations
 RTBSE|            3413     0.99003544E-007     0.10000000E+002                6
 RTBSE| Simulation step         Convergence     Electron number  ETRS Iterations
 RTBSE|            3414     0.91756777E-007     0.10000000E+002                6
 RTBSE| Simulation step         Convergence     Electron number  ETRS Iterations
 RTBSE|            3415     0.81354888E-007     0.10000000E+002                6
 RTBSE| Simulation step         Convergence     Electron number  ETRS Iterations
 RTBSE|            3416     0.68321661E-007     0.10000000E+002                6
 RTBSE| Simulation step         Convergence     Electron number  ETRS Iterations
 RTBSE|            3417     0.53192446E-007     0.10000000E+002                6
 RTBSE| Simulation step         Convergence     Electron number  ETRS Iterations
 RTBSE|            3418     0.36651070E-007     0.10000000E+002                6
 RTBSE| Simulation step         Convergence     Electron number  ETRS Iterations
 RTBSE|            3419     0.22851329E-007     0.10000000E+002                6
 RTBSE| Simulation step         Convergence     Electron number  ETRS Iterations
 RTBSE|            3420     0.35392573E-007     0.10000000E+002                6
 RTBSE| Simulation step         Convergence     Electron number  ETRS Iterations
 RTBSE|            3421     0.47632347E-007     0.10000000E+002                6
 RTBSE| Simulation step         Convergence     Electron number  ETRS Iterations
 RTBSE|            3422     0.57607039E-007     0.10000000E+002                6
 RTBSE| Simulation step         Convergence     Electron number  ETRS Iterations
 RTBSE|            3423     0.64739964E-007     0.10000000E+002                6
 RTBSE| Simulation step         Convergence     Electron number  ETRS Iterations
 RTBSE|            3424     0.69078351E-007     0.10000000E+002                6
 RTBSE| Simulation step         Convergence     Electron number  ETRS Iterations
 RTBSE|            3425     0.71025755E-007     0.10000000E+002                6
 RTBSE| Simulation step         Convergence     Electron number  ETRS Iterations
 RTBSE|            3426     0.71202974E-007     0.10000000E+002                6
 RTBSE| Simulation step         Convergence     Electron number  ETRS Iterations
 RTBSE|            3427     0.70341862E-007     0.10000000E+002                6
 RTBSE| Simulation step         Convergence     Electron number  ETRS Iterations
 RTBSE|            3428     0.69165494E-007     0.10000000E+002                6
 RTBSE| Simulation step         Convergence     Electron number  ETRS Iterations
 RTBSE|            3429     0.68336039E-007     0.10000000E+002                6
 RTBSE| Simulation step         Convergence     Electron number  ETRS Iterations
 RTBSE|            3430     0.68249499E-007     0.10000000E+002                6
 RTBSE| Simulation step         Convergence     Electron number  ETRS Iterations
 RTBSE|            3431     0.69114616E-007     0.10000000E+002                6
 RTBSE| Simulation step         Convergence     Electron number  ETRS Iterations
 RTBSE|            3432     0.70902387E-007     0.10000000E+002                6
 RTBSE| Simulation step         Convergence     Electron number  ETRS Iterations
 RTBSE|            3433     0.73807965E-007     0.10000000E+002                6
 RTBSE| Simulation step         Convergence     Electron number  ETRS Iterations
 RTBSE|            3434     0.79425064E-007     0.10000000E+002                6
 RTBSE| Simulation step         Convergence     Electron number  ETRS Iterations
 RTBSE|            3435     0.84964678E-007     0.10000000E+002                6
 RTBSE| Simulation step         Convergence     Electron number  ETRS Iterations
 RTBSE|            3436     0.89563178E-007     0.10000000E+002                6
 RTBSE| Simulation step         Convergence     Electron number  ETRS Iterations
 RTBSE|            3437     0.92265691E-007     0.10000000E+002                6
 RTBSE| Simulation step         Convergence     Electron number  ETRS Iterations
 RTBSE|            3438     0.92147613E-007     0.10000000E+002                6
 RTBSE| Simulation step         Convergence     Electron number  ETRS Iterations
 RTBSE|            3439     0.88387656E-007     0.10000000E+002                6
 RTBSE| Simulation step         Convergence     Electron number  ETRS Iterations
 RTBSE|            3440     0.80528224E-007     0.10000000E+002                6
 RTBSE| Simulation step         Convergence     Electron number  ETRS Iterations
 RTBSE|            3441     0.68447391E-007     0.10000000E+002                6
 RTBSE| Simulation step         Convergence     Electron number  ETRS Iterations
 RTBSE|            3442     0.52516110E-007     0.10000000E+002                6
 RTBSE| Simulation step         Convergence     Electron number  ETRS Iterations
 RTBSE|            3443     0.33581029E-007     0.10000000E+002                6
 RTBSE| Simulation step         Convergence     Electron number  ETRS Iterations
 RTBSE|            3444     0.36258858E-007     0.10000000E+002                6
 RTBSE| Simulation step         Convergence     Electron number  ETRS Iterations
 RTBSE|            3445     0.52706799E-007     0.10000000E+002                6
 RTBSE| Simulation step         Convergence     Electron number  ETRS Iterations
 RTBSE|            3446     0.68339151E-007     0.10000000E+002                6
 RTBSE| Simulation step         Convergence     Electron number  ETRS Iterations
 RTBSE|            3447     0.81396019E-007     0.10000000E+002                6
 RTBSE| Simulation step         Convergence     Electron number  ETRS Iterations
 RTBSE|            3448     0.90949001E-007     0.10000000E+002                6
 RTBSE| Simulation step         Convergence     Electron number  ETRS Iterations
 RTBSE|            3449     0.96740345E-007     0.10000000E+002                6
 RTBSE| Simulation step         Convergence     Electron number  ETRS Iterations
 RTBSE|            3450     0.98940615E-007     0.10000000E+002                6
 RTBSE| Simulation step         Convergence     Electron number  ETRS Iterations
 RTBSE|            3451     0.98212105E-007     0.10000000E+002                6
 RTBSE| Simulation step         Convergence     Electron number  ETRS Iterations
 RTBSE|            3452     0.95623077E-007     0.10000000E+002                6
 RTBSE| Simulation step         Convergence     Electron number  ETRS Iterations
 RTBSE|            3453     0.92269984E-007     0.10000000E+002                6
 RTBSE| Simulation step         Convergence     Electron number  ETRS Iterations
 RTBSE|            3454     0.89227095E-007     0.10000000E+002                6
 RTBSE| Simulation step         Convergence     Electron number  ETRS Iterations
 RTBSE|            3455     0.87320455E-007     0.10000000E+002                6
 RTBSE| Simulation step         Convergence     Electron number  ETRS Iterations
 RTBSE|            3456     0.87023675E-007     0.10000000E+002                6
 RTBSE| Simulation step         Convergence     Electron number  ETRS Iterations
 RTBSE|            3457     0.88306778E-007     0.10000000E+002                6
 RTBSE| Simulation step         Convergence     Electron number  ETRS Iterations
 RTBSE|            3458     0.90735693E-007     0.10000000E+002                6
 RTBSE| Simulation step         Convergence     Electron number  ETRS Iterations
 RTBSE|            3459     0.94283343E-007     0.10000000E+002                6
 RTBSE| Simulation step         Convergence     Electron number  ETRS Iterations
 RTBSE|            3460     0.99968967E-007     0.10000000E+002                6
 RTBSE| Simulation step         Convergence     Electron number  ETRS Iterations
 RTBSE|            3461     0.18591937E-007     0.10000000E+002                7
 RTBSE| Simulation step         Convergence     Electron number  ETRS Iterations
 RTBSE|            3462     0.18496094E-007     0.10000000E+002                7
 RTBSE| Simulation step         Convergence     Electron number  ETRS Iterations
 RTBSE|            3463     0.17795387E-007     0.10000000E+002                7
 RTBSE| Simulation step         Convergence     Electron number  ETRS Iterations
 RTBSE|            3464     0.16407819E-007     0.10000000E+002                7
 RTBSE| Simulation step         Convergence     Electron number  ETRS Iterations
 RTBSE|            3465     0.98342825E-007     0.10000000E+002                6
 RTBSE| Simulation step         Convergence     Electron number  ETRS Iterations
 RTBSE|            3466     0.88148908E-007     0.10000000E+002                6
 RTBSE| Simulation step         Convergence     Electron number  ETRS Iterations
 RTBSE|            3467     0.74932349E-007     0.10000000E+002                6
 RTBSE| Simulation step         Convergence     Electron number  ETRS Iterations
 RTBSE|            3468     0.59520616E-007     0.10000000E+002                6
 RTBSE| Simulation step         Convergence     Electron number  ETRS Iterations
 RTBSE|            3469     0.42247400E-007     0.10000000E+002                6
 RTBSE| Simulation step         Convergence     Electron number  ETRS Iterations
 RTBSE|            3470     0.24594594E-007     0.10000000E+002                6
 RTBSE| Simulation step         Convergence     Electron number  ETRS Iterations
 RTBSE|            3471     0.32755957E-007     0.10000000E+002                6
 RTBSE| Simulation step         Convergence     Electron number  ETRS Iterations
 RTBSE|            3472     0.45556796E-007     0.10000000E+002                6
 RTBSE| Simulation step         Convergence     Electron number  ETRS Iterations
 RTBSE|            3473     0.56116147E-007     0.10000000E+002                6
 RTBSE| Simulation step         Convergence     Electron number  ETRS Iterations
 RTBSE|            3474     0.63661922E-007     0.10000000E+002                6
 RTBSE| Simulation step         Convergence     Electron number  ETRS Iterations
 RTBSE|            3475     0.68198715E-007     0.10000000E+002                6
 RTBSE| Simulation step         Convergence     Electron number  ETRS Iterations
 RTBSE|            3476     0.70056078E-007     0.10000000E+002                6
 RTBSE| Simulation step         Convergence     Electron number  ETRS Iterations
 RTBSE|            3477     0.69892350E-007     0.10000000E+002                6
 RTBSE| Simulation step         Convergence     Electron number  ETRS Iterations
 RTBSE|            3478     0.68459985E-007     0.10000000E+002                6
 RTBSE| Simulation step         Convergence     Electron number  ETRS Iterations
 RTBSE|            3479     0.66627132E-007     0.10000000E+002                6
 RTBSE| Simulation step         Convergence     Electron number  ETRS Iterations
 RTBSE|            3480     0.65159358E-007     0.10000000E+002                6
 RTBSE| Simulation step         Convergence     Electron number  ETRS Iterations
 RTBSE|            3481     0.64562313E-007     0.10000000E+002                6
 RTBSE| Simulation step         Convergence     Electron number  ETRS Iterations
 RTBSE|            3482     0.65140459E-007     0.10000000E+002                6
 RTBSE| Simulation step         Convergence     Electron number  ETRS Iterations
 RTBSE|            3483     0.66884602E-007     0.10000000E+002                6
 RTBSE| Simulation step         Convergence     Electron number  ETRS Iterations
 RTBSE|            3484     0.69465394E-007     0.10000000E+002                6
 RTBSE| Simulation step         Convergence     Electron number  ETRS Iterations
 RTBSE|            3485     0.74042276E-007     0.10000000E+002                6
 RTBSE| Simulation step         Convergence     Electron number  ETRS Iterations
 RTBSE|            3486     0.80058568E-007     0.10000000E+002                6
 RTBSE| Simulation step         Convergence     Electron number  ETRS Iterations
 RTBSE|            3487     0.85523112E-007     0.10000000E+002                6
 RTBSE| Simulation step         Convergence     Electron number  ETRS Iterations
 RTBSE|            3488     0.89489394E-007     0.10000000E+002                6
 RTBSE| Simulation step         Convergence     Electron number  ETRS Iterations
 RTBSE|            3489     0.90937520E-007     0.10000000E+002                6
 RTBSE| Simulation step         Convergence     Electron number  ETRS Iterations
 RTBSE|            3490     0.89078577E-007     0.10000000E+002                6
 RTBSE| Simulation step         Convergence     Electron number  ETRS Iterations
 RTBSE|            3491     0.83318609E-007     0.10000000E+002                6
 RTBSE| Simulation step         Convergence     Electron number  ETRS Iterations
 RTBSE|            3492     0.73433765E-007     0.10000000E+002                6
 RTBSE| Simulation step         Convergence     Electron number  ETRS Iterations
 RTBSE|            3493     0.59623021E-007     0.10000000E+002                6
 RTBSE| Simulation step         Convergence     Electron number  ETRS Iterations
 RTBSE|            3494     0.42514638E-007     0.10000000E+002                6
 RTBSE| Simulation step         Convergence     Electron number  ETRS Iterations
 RTBSE|            3495     0.28136801E-007     0.10000000E+002                6
 RTBSE| Simulation step         Convergence     Electron number  ETRS Iterations
 RTBSE|            3496     0.43269618E-007     0.10000000E+002                6
 RTBSE| Simulation step         Convergence     Electron number  ETRS Iterations
 RTBSE|            3497     0.58945787E-007     0.10000000E+002                6
 RTBSE| Simulation step         Convergence     Electron number  ETRS Iterations
 RTBSE|            3498     0.72825454E-007     0.10000000E+002                6
 RTBSE| Simulation step         Convergence     Electron number  ETRS Iterations
 RTBSE|            3499     0.83737439E-007     0.10000000E+002                6
 RTBSE| Simulation step         Convergence     Electron number  ETRS Iterations
 RTBSE|            3500     0.91107970E-007     0.10000000E+002                6
 RTBSE| Simulation step         Convergence     Electron number  ETRS Iterations
 RTBSE|            3501     0.94986359E-007     0.10000000E+002                6
 RTBSE| Simulation step         Convergence     Electron number  ETRS Iterations
 RTBSE|            3502     0.95820833E-007     0.10000000E+002                6
 RTBSE| Simulation step         Convergence     Electron number  ETRS Iterations
 RTBSE|            3503     0.94478133E-007     0.10000000E+002                6
 RTBSE| Simulation step         Convergence     Electron number  ETRS Iterations
 RTBSE|            3504     0.92016106E-007     0.10000000E+002                6
 RTBSE| Simulation step         Convergence     Electron number  ETRS Iterations
 RTBSE|            3505     0.89525176E-007     0.10000000E+002                6
 RTBSE| Simulation step         Convergence     Electron number  ETRS Iterations
 RTBSE|            3506     0.87841977E-007     0.10000000E+002                6
 RTBSE| Simulation step         Convergence     Electron number  ETRS Iterations
 RTBSE|            3507     0.87632057E-007     0.10000000E+002                6
 RTBSE| Simulation step         Convergence     Electron number  ETRS Iterations
 RTBSE|            3508     0.88970831E-007     0.10000000E+002                6
 RTBSE| Simulation step         Convergence     Electron number  ETRS Iterations
 RTBSE|            3509     0.91555611E-007     0.10000000E+002                6
 RTBSE| Simulation step         Convergence     Electron number  ETRS Iterations
 RTBSE|            3510     0.94634129E-007     0.10000000E+002                6
 RTBSE| Simulation step         Convergence     Electron number  ETRS Iterations
 RTBSE|            3511     0.18457011E-007     0.10000000E+002                7
 RTBSE| Simulation step         Convergence     Electron number  ETRS Iterations
 RTBSE|            3512     0.18956462E-007     0.10000000E+002                7
 RTBSE| Simulation step         Convergence     Electron number  ETRS Iterations
 RTBSE|            3513     0.18997824E-007     0.10000000E+002                7
 RTBSE| Simulation step         Convergence     Electron number  ETRS Iterations
 RTBSE|            3514     0.18430844E-007     0.10000000E+002                7
 RTBSE| Simulation step         Convergence     Electron number  ETRS Iterations
 RTBSE|            3515     0.17172245E-007     0.10000000E+002                7
 RTBSE| Simulation step         Convergence     Electron number  ETRS Iterations
 RTBSE|            3516     0.15211579E-007     0.10000000E+002                7
 RTBSE| Simulation step         Convergence     Electron number  ETRS Iterations
 RTBSE|            3517     0.91850953E-007     0.10000000E+002                6
 RTBSE| Simulation step         Convergence     Electron number  ETRS Iterations
 RTBSE|            3518     0.78955660E-007     0.10000000E+002                6
 RTBSE| Simulation step         Convergence     Electron number  ETRS Iterations
 RTBSE|            3519     0.63664841E-007     0.10000000E+002                6
 RTBSE| Simulation step         Convergence     Electron number  ETRS Iterations
 RTBSE|            3520     0.46603148E-007     0.10000000E+002                6
 RTBSE| Simulation step         Convergence     Electron number  ETRS Iterations
 RTBSE|            3521     0.28947676E-007     0.10000000E+002                6
 RTBSE| Simulation step         Convergence     Electron number  ETRS Iterations
 RTBSE|            3522     0.28547835E-007     0.10000000E+002                6
 RTBSE| Simulation step         Convergence     Electron number  ETRS Iterations
 RTBSE|            3523     0.41191781E-007     0.10000000E+002                6
 RTBSE| Simulation step         Convergence     Electron number  ETRS Iterations
 RTBSE|            3524     0.51909442E-007     0.10000000E+002                6
 RTBSE| Simulation step         Convergence     Electron number  ETRS Iterations
 RTBSE|            3525     0.59645520E-007     0.10000000E+002                6
 RTBSE| Simulation step         Convergence     Electron number  ETRS Iterations
 RTBSE|            3526     0.64338656E-007     0.10000000E+002                6
 RTBSE| Simulation step         Convergence     Electron number  ETRS Iterations
 RTBSE|            3527     0.66303070E-007     0.10000000E+002                6
 RTBSE| Simulation step         Convergence     Electron number  ETRS Iterations
 RTBSE|            3528     0.66157463E-007     0.10000000E+002                6
 RTBSE| Simulation step         Convergence     Electron number  ETRS Iterations
 RTBSE|            3529     0.64817851E-007     0.10000000E+002                6
 RTBSE| Simulation step         Convergence     Electron number  ETRS Iterations
 RTBSE|            3530     0.63019126E-007     0.10000000E+002                6
 RTBSE| Simulation step         Convergence     Electron number  ETRS Iterations
 RTBSE|            3531     0.61595024E-007     0.10000000E+002                6
 RTBSE| Simulation step         Convergence     Electron number  ETRS Iterations
 RTBSE|            3532     0.61112535E-007     0.10000000E+002                6
 RTBSE| Simulation step         Convergence     Electron number  ETRS Iterations
 RTBSE|            3533     0.61895288E-007     0.10000000E+002                6
 RTBSE| Simulation step         Convergence     Electron number  ETRS Iterations
 RTBSE|            3534     0.64007673E-007     0.10000000E+002                6
 RTBSE| Simulation step         Convergence     Electron number  ETRS Iterations
 RTBSE|            3535     0.67212327E-007     0.10000000E+002                6
 RTBSE| Simulation step         Convergence     Electron number  ETRS Iterations
 RTBSE|            3536     0.70965474E-007     0.10000000E+002                6
 RTBSE| Simulation step         Convergence     Electron number  ETRS Iterations
 RTBSE|            3537     0.76646717E-007     0.10000000E+002                6
 RTBSE| Simulation step         Convergence     Electron number  ETRS Iterations
 RTBSE|            3538     0.83108720E-007     0.10000000E+002                6
 RTBSE| Simulation step         Convergence     Electron number  ETRS Iterations
 RTBSE|            3539     0.88381286E-007     0.10000000E+002                6
 RTBSE| Simulation step         Convergence     Electron number  ETRS Iterations
 RTBSE|            3540     0.91499236E-007     0.10000000E+002                6
 RTBSE| Simulation step         Convergence     Electron number  ETRS Iterations
 RTBSE|            3541     0.91546094E-007     0.10000000E+002                6
 RTBSE| Simulation step         Convergence     Electron number  ETRS Iterations
 RTBSE|            3542     0.87790620E-007     0.10000000E+002                6
 RTBSE| Simulation step         Convergence     Electron number  ETRS Iterations
 RTBSE|            3543     0.79852729E-007     0.10000000E+002                6
 RTBSE| Simulation step         Convergence     Electron number  ETRS Iterations
 RTBSE|            3544     0.67735899E-007     0.10000000E+002                6
 RTBSE| Simulation step         Convergence     Electron number  ETRS Iterations
 RTBSE|            3545     0.51884870E-007     0.10000000E+002                6
 RTBSE| Simulation step         Convergence     Electron number  ETRS Iterations
 RTBSE|            3546     0.33203710E-007     0.10000000E+002                6
 RTBSE| Simulation step         Convergence     Electron number  ETRS Iterations
 RTBSE|            3547     0.35703308E-007     0.10000000E+002                6
 RTBSE| Simulation step         Convergence     Electron number  ETRS Iterations
 RTBSE|            3548     0.51570936E-007     0.10000000E+002                6
 RTBSE| Simulation step         Convergence     Electron number  ETRS Iterations
 RTBSE|            3549     0.66416873E-007     0.10000000E+002                6
 RTBSE| Simulation step         Convergence     Electron number  ETRS Iterations
 RTBSE|            3550     0.78655076E-007     0.10000000E+002                6
 RTBSE| Simulation step         Convergence     Electron number  ETRS Iterations
 RTBSE|            3551     0.87379125E-007     0.10000000E+002                6
 RTBSE| Simulation step         Convergence     Electron number  ETRS Iterations
 RTBSE|            3552     0.92439739E-007     0.10000000E+002                6
 RTBSE| Simulation step         Convergence     Electron number  ETRS Iterations
 RTBSE|            3553     0.94167576E-007     0.10000000E+002                6
 RTBSE| Simulation step         Convergence     Electron number  ETRS Iterations
 RTBSE|            3554     0.93306153E-007     0.10000000E+002                6
 RTBSE| Simulation step         Convergence     Electron number  ETRS Iterations
 RTBSE|            3555     0.90981356E-007     0.10000000E+002                6
 RTBSE| Simulation step         Convergence     Electron number  ETRS Iterations
 RTBSE|            3556     0.88357726E-007     0.10000000E+002                6
 RTBSE| Simulation step         Convergence     Electron number  ETRS Iterations
 RTBSE|            3557     0.86423310E-007     0.10000000E+002                6
 RTBSE| Simulation step         Convergence     Electron number  ETRS Iterations
 RTBSE|            3558     0.85899950E-007     0.10000000E+002                6
 RTBSE| Simulation step         Convergence     Electron number  ETRS Iterations
 RTBSE|            3559     0.87066541E-007     0.10000000E+002                6
 RTBSE| Simulation step         Convergence     Electron number  ETRS Iterations
 RTBSE|            3560     0.89717637E-007     0.10000000E+002                6
 RTBSE| Simulation step         Convergence     Electron number  ETRS Iterations
 RTBSE|            3561     0.93166873E-007     0.10000000E+002                6
 RTBSE| Simulation step         Convergence     Electron number  ETRS Iterations
 RTBSE|            3562     0.97203527E-007     0.10000000E+002                6
 RTBSE| Simulation step         Convergence     Electron number  ETRS Iterations
 RTBSE|            3563     0.18907177E-007     0.10000000E+002                7
 RTBSE| Simulation step         Convergence     Electron number  ETRS Iterations
 RTBSE|            3564     0.19198637E-007     0.10000000E+002                7
 RTBSE| Simulation step         Convergence     Electron number  ETRS Iterations
 RTBSE|            3565     0.18888387E-007     0.10000000E+002                7
 RTBSE| Simulation step         Convergence     Electron number  ETRS Iterations
 RTBSE|            3566     0.17900452E-007     0.10000000E+002                7
 RTBSE| Simulation step         Convergence     Electron number  ETRS Iterations
 RTBSE|            3567     0.16214127E-007     0.10000000E+002                7
 RTBSE| Simulation step         Convergence     Electron number  ETRS Iterations
 RTBSE|            3568     0.96136012E-007     0.10000000E+002                6
 RTBSE| Simulation step         Convergence     Electron number  ETRS Iterations
 RTBSE|            3569     0.84507441E-007     0.10000000E+002                6
 RTBSE| Simulation step         Convergence     Electron number  ETRS Iterations
 RTBSE|            3570     0.70164976E-007     0.10000000E+002                6
 RTBSE| Simulation step         Convergence     Electron number  ETRS Iterations
 RTBSE|            3571     0.53922633E-007     0.10000000E+002                6
 RTBSE| Simulation step         Convergence     Electron number  ETRS Iterations
 RTBSE|            3572     0.36693345E-007     0.10000000E+002                6
 RTBSE| Simulation step         Convergence     Electron number  ETRS Iterations
 RTBSE|            3573     0.22378026E-007     0.10000000E+002                6
 RTBSE| Simulation step         Convergence     Electron number  ETRS Iterations
 RTBSE|            3574     0.34469251E-007     0.10000000E+002                6
 RTBSE| Simulation step         Convergence     Electron number  ETRS Iterations
 RTBSE|            3575     0.45713649E-007     0.10000000E+002                6
 RTBSE| Simulation step         Convergence     Electron number  ETRS Iterations
 RTBSE|            3576     0.54326932E-007     0.10000000E+002                6
 RTBSE| Simulation step         Convergence     Electron number  ETRS Iterations
 RTBSE|            3577     0.59972384E-007     0.10000000E+002                6
 RTBSE| Simulation step         Convergence     Electron number  ETRS Iterations
 RTBSE|            3578     0.62839174E-007     0.10000000E+002                6
 RTBSE| Simulation step         Convergence     Electron number  ETRS Iterations
 RTBSE|            3579     0.63548086E-007     0.10000000E+002                6
 RTBSE| Simulation step         Convergence     Electron number  ETRS Iterations
 RTBSE|            3580     0.62794437E-007     0.10000000E+002                6
 RTBSE| Simulation step         Convergence     Electron number  ETRS Iterations
 RTBSE|            3581     0.61392785E-007     0.10000000E+002                6
 RTBSE| Simulation step         Convergence     Electron number  ETRS Iterations
 RTBSE|            3582     0.60275740E-007     0.10000000E+002                6
 RTBSE| Simulation step         Convergence     Electron number  ETRS Iterations
 RTBSE|            3583     0.59978003E-007     0.10000000E+002                6
 RTBSE| Simulation step         Convergence     Electron number  ETRS Iterations
 RTBSE|            3584     0.60986580E-007     0.10000000E+002                6
 RTBSE| Simulation step         Convergence     Electron number  ETRS Iterations
 RTBSE|            3585     0.63400126E-007     0.10000000E+002                6
 RTBSE| Simulation step         Convergence     Electron number  ETRS Iterations
 RTBSE|            3586     0.66999154E-007     0.10000000E+002                6
 RTBSE| Simulation step         Convergence     Electron number  ETRS Iterations
 RTBSE|            3587     0.71322399E-007     0.10000000E+002                6
 RTBSE| Simulation step         Convergence     Electron number  ETRS Iterations
 RTBSE|            3588     0.75715999E-007     0.10000000E+002                6
 RTBSE| Simulation step         Convergence     Electron number  ETRS Iterations
 RTBSE|            3589     0.82603963E-007     0.10000000E+002                6
 RTBSE| Simulation step         Convergence     Electron number  ETRS Iterations
 RTBSE|            3590     0.89054020E-007     0.10000000E+002                6
 RTBSE| Simulation step         Convergence     Electron number  ETRS Iterations
 RTBSE|            3591     0.93505030E-007     0.10000000E+002                6
 RTBSE| Simulation step         Convergence     Electron number  ETRS Iterations
 RTBSE|            3592     0.94944772E-007     0.10000000E+002                6
 RTBSE| Simulation step         Convergence     Electron number  ETRS Iterations
 RTBSE|            3593     0.92552467E-007     0.10000000E+002                6
 RTBSE| Simulation step         Convergence     Electron number  ETRS Iterations
 RTBSE|            3594     0.85831829E-007     0.10000000E+002                6
 RTBSE| Simulation step         Convergence     Electron number  ETRS Iterations
 RTBSE|            3595     0.74654717E-007     0.10000000E+002                6
 RTBSE| Simulation step         Convergence     Electron number  ETRS Iterations
 RTBSE|            3596     0.59344285E-007     0.10000000E+002                6
 RTBSE| Simulation step         Convergence     Electron number  ETRS Iterations
 RTBSE|            3597     0.40728349E-007     0.10000000E+002                6
 RTBSE| Simulation step         Convergence     Electron number  ETRS Iterations
 RTBSE|            3598     0.30835220E-007     0.10000000E+002                6
 RTBSE| Simulation step         Convergence     Electron number  ETRS Iterations
 RTBSE|            3599     0.46555368E-007     0.10000000E+002                6
 RTBSE| Simulation step         Convergence     Electron number  ETRS Iterations
 RTBSE|            3600     0.61998778E-007     0.10000000E+002                6
 RTBSE| Simulation step         Convergence     Electron number  ETRS Iterations
 RTBSE|            3601     0.75029056E-007     0.10000000E+002                6
 RTBSE| Simulation step         Convergence     Electron number  ETRS Iterations
 RTBSE|            3602     0.84544499E-007     0.10000000E+002                6
 RTBSE| Simulation step         Convergence     Electron number  ETRS Iterations
 RTBSE|            3603     0.90229489E-007     0.10000000E+002                6
 RTBSE| Simulation step         Convergence     Electron number  ETRS Iterations
 RTBSE|            3604     0.92329248E-007     0.10000000E+002                6
 RTBSE| Simulation step         Convergence     Electron number  ETRS Iterations
 RTBSE|            3605     0.91572268E-007     0.10000000E+002                6
 RTBSE| Simulation step         Convergence     Electron number  ETRS Iterations
 RTBSE|            3606     0.89082820E-007     0.10000000E+002                6
 RTBSE| Simulation step         Convergence     Electron number  ETRS Iterations
 RTBSE|            3607     0.86063915E-007     0.10000000E+002                6
 RTBSE| Simulation step         Convergence     Electron number  ETRS Iterations
 RTBSE|            3608     0.83610043E-007     0.10000000E+002                6
 RTBSE| Simulation step         Convergence     Electron number  ETRS Iterations
 RTBSE|            3609     0.82610429E-007     0.10000000E+002                6
 RTBSE| Simulation step         Convergence     Electron number  ETRS Iterations
 RTBSE|            3610     0.83480466E-007     0.10000000E+002                6
 RTBSE| Simulation step         Convergence     Electron number  ETRS Iterations
 RTBSE|            3611     0.86207807E-007     0.10000000E+002                6
 RTBSE| Simulation step         Convergence     Electron number  ETRS Iterations
 RTBSE|            3612     0.90148641E-007     0.10000000E+002                6
 RTBSE| Simulation step         Convergence     Electron number  ETRS Iterations
 RTBSE|            3613     0.94402550E-007     0.10000000E+002                6
 RTBSE| Simulation step         Convergence     Electron number  ETRS Iterations
 RTBSE|            3614     0.99277560E-007     0.10000000E+002                6
 RTBSE| Simulation step         Convergence     Electron number  ETRS Iterations
 RTBSE|            3615     0.19299770E-007     0.10000000E+002                7
 RTBSE| Simulation step         Convergence     Electron number  ETRS Iterations
 RTBSE|            3616     0.19401274E-007     0.10000000E+002                7
 RTBSE| Simulation step         Convergence     Electron number  ETRS Iterations
 RTBSE|            3617     0.18824381E-007     0.10000000E+002                7
 RTBSE| Simulation step         Convergence     Electron number  ETRS Iterations
 RTBSE|            3618     0.17509813E-007     0.10000000E+002                7
 RTBSE| Simulation step         Convergence     Electron number  ETRS Iterations
 RTBSE|            3619     0.15466190E-007     0.10000000E+002                7
 RTBSE| Simulation step         Convergence     Electron number  ETRS Iterations
 RTBSE|            3620     0.92371518E-007     0.10000000E+002                6
 RTBSE| Simulation step         Convergence     Electron number  ETRS Iterations
 RTBSE|            3621     0.79330039E-007     0.10000000E+002                6
 RTBSE| Simulation step         Convergence     Electron number  ETRS Iterations
 RTBSE|            3622     0.63818457E-007     0.10000000E+002                6
 RTBSE| Simulation step         Convergence     Electron number  ETRS Iterations
 RTBSE|            3623     0.46705974E-007     0.10000000E+002                6
 RTBSE| Simulation step         Convergence     Electron number  ETRS Iterations
 RTBSE|            3624     0.28992811E-007     0.10000000E+002                6
 RTBSE| Simulation step         Convergence     Electron number  ETRS Iterations
 RTBSE|            3625     0.28363809E-007     0.10000000E+002                6
 RTBSE| Simulation step         Convergence     Electron number  ETRS Iterations
 RTBSE|            3626     0.40436492E-007     0.10000000E+002                6
 RTBSE| Simulation step         Convergence     Electron number  ETRS Iterations
 RTBSE|            3627     0.50377937E-007     0.10000000E+002                6
 RTBSE| Simulation step         Convergence     Electron number  ETRS Iterations
 RTBSE|            3628     0.57373883E-007     0.10000000E+002                6
 RTBSE| Simulation step         Convergence     Electron number  ETRS Iterations
 RTBSE|            3629     0.61421288E-007     0.10000000E+002                6
 RTBSE| Simulation step         Convergence     Electron number  ETRS Iterations
 RTBSE|            3630     0.62973448E-007     0.10000000E+002                6
 RTBSE| Simulation step         Convergence     Electron number  ETRS Iterations
 RTBSE|            3631     0.62788881E-007     0.10000000E+002                6
 RTBSE| Simulation step         Convergence     Electron number  ETRS Iterations
 RTBSE|            3632     0.61737456E-007     0.10000000E+002                6
 RTBSE| Simulation step         Convergence     Electron number  ETRS Iterations
 RTBSE|            3633     0.60623509E-007     0.10000000E+002                6
 RTBSE| Simulation step         Convergence     Electron number  ETRS Iterations
 RTBSE|            3634     0.60280268E-007     0.10000000E+002                6
 RTBSE| Simulation step         Convergence     Electron number  ETRS Iterations
 RTBSE|            3635     0.61145198E-007     0.10000000E+002                6
 RTBSE| Simulation step         Convergence     Electron number  ETRS Iterations
 RTBSE|            3636     0.63476935E-007     0.10000000E+002                6
 RTBSE| Simulation step         Convergence     Electron number  ETRS Iterations
 RTBSE|            3637     0.67152027E-007     0.10000000E+002                6
 RTBSE| Simulation step         Convergence     Electron number  ETRS Iterations
 RTBSE|            3638     0.71732161E-007     0.10000000E+002                6
 RTBSE| Simulation step         Convergence     Electron number  ETRS Iterations
 RTBSE|            3639     0.76467299E-007     0.10000000E+002                6
 RTBSE| Simulation step         Convergence     Electron number  ETRS Iterations
 RTBSE|            3640     0.82103456E-007     0.10000000E+002                6
 RTBSE| Simulation step         Convergence     Electron number  ETRS Iterations
 RTBSE|            3641     0.88871052E-007     0.10000000E+002                6
 RTBSE| Simulation step         Convergence     Electron number  ETRS Iterations
 RTBSE|            3642     0.93948440E-007     0.10000000E+002                6
 RTBSE| Simulation step         Convergence     Electron number  ETRS Iterations
 RTBSE|            3643     0.96140959E-007     0.10000000E+002                6
 RTBSE| Simulation step         Convergence     Electron number  ETRS Iterations
 RTBSE|            3644     0.94561983E-007     0.10000000E+002                6
 RTBSE| Simulation step         Convergence     Electron number  ETRS Iterations
 RTBSE|            3645     0.88603000E-007     0.10000000E+002                6
 RTBSE| Simulation step         Convergence     Electron number  ETRS Iterations
 RTBSE|            3646     0.78125353E-007     0.10000000E+002                6
 RTBSE| Simulation step         Convergence     Electron number  ETRS Iterations
 RTBSE|            3647     0.63450116E-007     0.10000000E+002                6
 RTBSE| Simulation step         Convergence     Electron number  ETRS Iterations
 RTBSE|            3648     0.45361878E-007     0.10000000E+002                6
 RTBSE| Simulation step         Convergence     Electron number  ETRS Iterations
 RTBSE|            3649     0.26743576E-007     0.10000000E+002                6
 RTBSE| Simulation step         Convergence     Electron number  ETRS Iterations
 RTBSE|            3650     0.41539107E-007     0.10000000E+002                6
 RTBSE| Simulation step         Convergence     Electron number  ETRS Iterations
 RTBSE|            3651     0.56890181E-007     0.10000000E+002                6
 RTBSE| Simulation step         Convergence     Electron number  ETRS Iterations
 RTBSE|            3652     0.70051247E-007     0.10000000E+002                6
 RTBSE| Simulation step         Convergence     Electron number  ETRS Iterations
 RTBSE|            3653     0.79836249E-007     0.10000000E+002                6
 RTBSE| Simulation step         Convergence     Electron number  ETRS Iterations
 RTBSE|            3654     0.85743922E-007     0.10000000E+002                6
 RTBSE| Simulation step         Convergence     Electron number  ETRS Iterations
 RTBSE|            3655     0.87988639E-007     0.10000000E+002                6
 RTBSE| Simulation step         Convergence     Electron number  ETRS Iterations
 RTBSE|            3656     0.87221607E-007     0.10000000E+002                6
 RTBSE| Simulation step         Convergence     Electron number  ETRS Iterations
 RTBSE|            3657     0.84564236E-007     0.10000000E+002                6
 RTBSE| Simulation step         Convergence     Electron number  ETRS Iterations
 RTBSE|            3658     0.81237504E-007     0.10000000E+002                6
 RTBSE| Simulation step         Convergence     Electron number  ETRS Iterations
 RTBSE|            3659     0.78538872E-007     0.10000000E+002                6
 RTBSE| Simulation step         Convergence     Electron number  ETRS Iterations
 RTBSE|            3660     0.77429642E-007     0.10000000E+002                6
 RTBSE| Simulation step         Convergence     Electron number  ETRS Iterations
 RTBSE|            3661     0.78519565E-007     0.10000000E+002                6
 RTBSE| Simulation step         Convergence     Electron number  ETRS Iterations
 RTBSE|            3662     0.81888667E-007     0.10000000E+002                6
 RTBSE| Simulation step         Convergence     Electron number  ETRS Iterations
 RTBSE|            3663     0.87051435E-007     0.10000000E+002                6
 RTBSE| Simulation step         Convergence     Electron number  ETRS Iterations
 RTBSE|            3664     0.93029741E-007     0.10000000E+002                6
 RTBSE| Simulation step         Convergence     Electron number  ETRS Iterations
 RTBSE|            3665     0.98671155E-007     0.10000000E+002                6
 RTBSE| Simulation step         Convergence     Electron number  ETRS Iterations
 RTBSE|            3666     0.19784898E-007     0.10000000E+002                7
 RTBSE| Simulation step         Convergence     Electron number  ETRS Iterations
 RTBSE|            3667     0.20343492E-007     0.10000000E+002                7
 RTBSE| Simulation step         Convergence     Electron number  ETRS Iterations
 RTBSE|            3668     0.20206123E-007     0.10000000E+002                7
 RTBSE| Simulation step         Convergence     Electron number  ETRS Iterations
 RTBSE|            3669     0.19232389E-007     0.10000000E+002                7
 RTBSE| Simulation step         Convergence     Electron number  ETRS Iterations
 RTBSE|            3670     0.17423122E-007     0.10000000E+002                7
 RTBSE| Simulation step         Convergence     Electron number  ETRS Iterations
 RTBSE|            3671     0.14891119E-007     0.10000000E+002                7
 RTBSE| Simulation step         Convergence     Electron number  ETRS Iterations
 RTBSE|            3672     0.89975300E-007     0.10000000E+002                6
 RTBSE| Simulation step         Convergence     Electron number  ETRS Iterations
 RTBSE|            3673     0.74402886E-007     0.10000000E+002                6
 RTBSE| Simulation step         Convergence     Electron number  ETRS Iterations
 RTBSE|            3674     0.56701883E-007     0.10000000E+002                6
 RTBSE| Simulation step         Convergence     Electron number  ETRS Iterations
 RTBSE|            3675     0.38003452E-007     0.10000000E+002                6
 RTBSE| Simulation step         Convergence     Electron number  ETRS Iterations
 RTBSE|            3676     0.24164175E-007     0.10000000E+002                6
 RTBSE| Simulation step         Convergence     Electron number  ETRS Iterations
 RTBSE|            3677     0.36622489E-007     0.10000000E+002                6
 RTBSE| Simulation step         Convergence     Electron number  ETRS Iterations
 RTBSE|            3678     0.47709183E-007     0.10000000E+002                6
 RTBSE| Simulation step         Convergence     Electron number  ETRS Iterations
 RTBSE|            3679     0.55875417E-007     0.10000000E+002                6
 RTBSE| Simulation step         Convergence     Electron number  ETRS Iterations
 RTBSE|            3680     0.60864879E-007     0.10000000E+002                6
 RTBSE| Simulation step         Convergence     Electron number  ETRS Iterations
 RTBSE|            3681     0.63114679E-007     0.10000000E+002                6
 RTBSE| Simulation step         Convergence     Electron number  ETRS Iterations
 RTBSE|            3682     0.63333216E-007     0.10000000E+002                6
 RTBSE| Simulation step         Convergence     Electron number  ETRS Iterations
 RTBSE|            3683     0.62394472E-007     0.10000000E+002                6
 RTBSE| Simulation step         Convergence     Electron number  ETRS Iterations
 RTBSE|            3684     0.61219076E-007     0.10000000E+002                6
 RTBSE| Simulation step         Convergence     Electron number  ETRS Iterations
 RTBSE|            3685     0.60599146E-007     0.10000000E+002                6
 RTBSE| Simulation step         Convergence     Electron number  ETRS Iterations
 RTBSE|            3686     0.61128468E-007     0.10000000E+002                6
 RTBSE| Simulation step         Convergence     Electron number  ETRS Iterations
 RTBSE|            3687     0.63104649E-007     0.10000000E+002                6
 RTBSE| Simulation step         Convergence     Electron number  ETRS Iterations
 RTBSE|            3688     0.66454645E-007     0.10000000E+002                6
 RTBSE| Simulation step         Convergence     Electron number  ETRS Iterations
 RTBSE|            3689     0.70844523E-007     0.10000000E+002                6
 RTBSE| Simulation step         Convergence     Electron number  ETRS Iterations
 RTBSE|            3690     0.75575123E-007     0.10000000E+002                6
 RTBSE| Simulation step         Convergence     Electron number  ETRS Iterations
 RTBSE|            3691     0.80082206E-007     0.10000000E+002                6
 RTBSE| Simulation step         Convergence     Electron number  ETRS Iterations
 RTBSE|            3692     0.86929407E-007     0.10000000E+002                6
 RTBSE| Simulation step         Convergence     Electron number  ETRS Iterations
 RTBSE|            3693     0.92085001E-007     0.10000000E+002                6
 RTBSE| Simulation step         Convergence     Electron number  ETRS Iterations
 RTBSE|            3694     0.94967914E-007     0.10000000E+002                6
 RTBSE| Simulation step         Convergence     Electron number  ETRS Iterations
 RTBSE|            3695     0.94406542E-007     0.10000000E+002                6
 RTBSE| Simulation step         Convergence     Electron number  ETRS Iterations
 RTBSE|            3696     0.89765789E-007     0.10000000E+002                6
 RTBSE| Simulation step         Convergence     Electron number  ETRS Iterations
 RTBSE|            3697     0.80798393E-007     0.10000000E+002                6
 RTBSE| Simulation step         Convergence     Electron number  ETRS Iterations
 RTBSE|            3698     0.67685374E-007     0.10000000E+002                6
 RTBSE| Simulation step         Convergence     Electron number  ETRS Iterations
 RTBSE|            3699     0.51006513E-007     0.10000000E+002                6
 RTBSE| Simulation step         Convergence     Electron number  ETRS Iterations
 RTBSE|            3700     0.31821123E-007     0.10000000E+002                6
 RTBSE| Simulation step         Convergence     Electron number  ETRS Iterations
 RTBSE|            3701     0.34562190E-007     0.10000000E+002                6
 RTBSE| Simulation step         Convergence     Electron number  ETRS Iterations
 RTBSE|            3702     0.49379684E-007     0.10000000E+002                6
 RTBSE| Simulation step         Convergence     Electron number  ETRS Iterations
 RTBSE|            3703     0.62642074E-007     0.10000000E+002                6
 RTBSE| Simulation step         Convergence     Electron number  ETRS Iterations
 RTBSE|            3704     0.72876261E-007     0.10000000E+002                6
 RTBSE| Simulation step         Convergence     Electron number  ETRS Iterations
 RTBSE|            3705     0.79401553E-007     0.10000000E+002                6
 RTBSE| Simulation step         Convergence     Electron number  ETRS Iterations
 RTBSE|            3706     0.82268576E-007     0.10000000E+002                6
 RTBSE| Simulation step         Convergence     Electron number  ETRS Iterations
 RTBSE|            3707     0.82065258E-007     0.10000000E+002                6
 RTBSE| Simulation step         Convergence     Electron number  ETRS Iterations
 RTBSE|            3708     0.79883098E-007     0.10000000E+002                6
 RTBSE| Simulation step         Convergence     Electron number  ETRS Iterations
 RTBSE|            3709     0.76967927E-007     0.10000000E+002                6
 RTBSE| Simulation step         Convergence     Electron number  ETRS Iterations
 RTBSE|            3710     0.74726830E-007     0.10000000E+002                6
 RTBSE| Simulation step         Convergence     Electron number  ETRS Iterations
 RTBSE|            3711     0.74271272E-007     0.10000000E+002                6
 RTBSE| Simulation step         Convergence     Electron number  ETRS Iterations
 RTBSE|            3712     0.76227596E-007     0.10000000E+002                6
 RTBSE| Simulation step         Convergence     Electron number  ETRS Iterations
 RTBSE|            3713     0.80789762E-007     0.10000000E+002                6
 RTBSE| Simulation step         Convergence     Electron number  ETRS Iterations
 RTBSE|            3714     0.87405273E-007     0.10000000E+002                6
 RTBSE| Simulation step         Convergence     Electron number  ETRS Iterations
 RTBSE|            3715     0.95114849E-007     0.10000000E+002                6
 RTBSE| Simulation step         Convergence     Electron number  ETRS Iterations
 RTBSE|            3716     0.19342362E-007     0.10000000E+002                7
 RTBSE| Simulation step         Convergence     Electron number  ETRS Iterations
 RTBSE|            3717     0.20796836E-007     0.10000000E+002                7
 RTBSE| Simulation step         Convergence     Electron number  ETRS Iterations
 RTBSE|            3718     0.21682730E-007     0.10000000E+002                7
 RTBSE| Simulation step         Convergence     Electron number  ETRS Iterations
 RTBSE|            3719     0.21794163E-007     0.10000000E+002                7
 RTBSE| Simulation step         Convergence     Electron number  ETRS Iterations
 RTBSE|            3720     0.20990336E-007     0.10000000E+002                7
 RTBSE| Simulation step         Convergence     Electron number  ETRS Iterations
 RTBSE|            3721     0.19263103E-007     0.10000000E+002                7
 RTBSE| Simulation step         Convergence     Electron number  ETRS Iterations
 RTBSE|            3722     0.16667179E-007     0.10000000E+002                7
 RTBSE| Simulation step         Convergence     Electron number  ETRS Iterations
 RTBSE|            3723     0.99266110E-007     0.10000000E+002                6
 RTBSE| Simulation step         Convergence     Electron number  ETRS Iterations
 RTBSE|            3724     0.83294537E-007     0.10000000E+002                6
 RTBSE| Simulation step         Convergence     Electron number  ETRS Iterations
 RTBSE|            3725     0.64859404E-007     0.10000000E+002                6
 RTBSE| Simulation step         Convergence     Electron number  ETRS Iterations
 RTBSE|            3726     0.45155898E-007     0.10000000E+002                6
 RTBSE| Simulation step         Convergence     Electron number  ETRS Iterations
 RTBSE|            3727     0.25423848E-007     0.10000000E+002                6
 RTBSE| Simulation step         Convergence     Electron number  ETRS Iterations
 RTBSE|            3728     0.34093585E-007     0.10000000E+002                6
 RTBSE| Simulation step         Convergence     Electron number  ETRS Iterations
 RTBSE|            3729     0.46028282E-007     0.10000000E+002                6
 RTBSE| Simulation step         Convergence     Electron number  ETRS Iterations
 RTBSE|            3730     0.55083426E-007     0.10000000E+002                6
 RTBSE| Simulation step         Convergence     Electron number  ETRS Iterations
 RTBSE|            3731     0.60853972E-007     0.10000000E+002                6
 RTBSE| Simulation step         Convergence     Electron number  ETRS Iterations
 RTBSE|            3732     0.63669595E-007     0.10000000E+002                6
 RTBSE| Simulation step         Convergence     Electron number  ETRS Iterations
 RTBSE|            3733     0.64132174E-007     0.10000000E+002                6
 RTBSE| Simulation step         Convergence     Electron number  ETRS Iterations
 RTBSE|            3734     0.63146808E-007     0.10000000E+002                6
 RTBSE| Simulation step         Convergence     Electron number  ETRS Iterations
 RTBSE|            3735     0.61633971E-007     0.10000000E+002                6
 RTBSE| Simulation step         Convergence     Electron number  ETRS Iterations
 RTBSE|            3736     0.60467903E-007     0.10000000E+002                6
 RTBSE| Simulation step         Convergence     Electron number  ETRS Iterations
 RTBSE|            3737     0.60322512E-007     0.10000000E+002                6
 RTBSE| Simulation step         Convergence     Electron number  ETRS Iterations
 RTBSE|            3738     0.61623520E-007     0.10000000E+002                6
 RTBSE| Simulation step         Convergence     Electron number  ETRS Iterations
 RTBSE|            3739     0.64414018E-007     0.10000000E+002                6
 RTBSE| Simulation step         Convergence     Electron number  ETRS Iterations
 RTBSE|            3740     0.68428803E-007     0.10000000E+002                6
 RTBSE| Simulation step         Convergence     Electron number  ETRS Iterations
 RTBSE|            3741     0.73082336E-007     0.10000000E+002                6
 RTBSE| Simulation step         Convergence     Electron number  ETRS Iterations
 RTBSE|            3742     0.77584468E-007     0.10000000E+002                6
 RTBSE| Simulation step         Convergence     Electron number  ETRS Iterations
 RTBSE|            3743     0.83440599E-007     0.10000000E+002                6
 RTBSE| Simulation step         Convergence     Electron number  ETRS Iterations
 RTBSE|            3744     0.89268321E-007     0.10000000E+002                6
 RTBSE| Simulation step         Convergence     Electron number  ETRS Iterations
 RTBSE|            3745     0.92783407E-007     0.10000000E+002                6
 RTBSE| Simulation step         Convergence     Electron number  ETRS Iterations
 RTBSE|            3746     0.93632252E-007     0.10000000E+002                6
 RTBSE| Simulation step         Convergence     Electron number  ETRS Iterations
 RTBSE|            3747     0.90670787E-007     0.10000000E+002                6
 RTBSE| Simulation step         Convergence     Electron number  ETRS Iterations
 RTBSE|            3748     0.83461303E-007     0.10000000E+002                6
 RTBSE| Simulation step         Convergence     Electron number  ETRS Iterations
 RTBSE|            3749     0.72063666E-007     0.10000000E+002                6
 RTBSE| Simulation step         Convergence     Electron number  ETRS Iterations
 RTBSE|            3750     0.56974485E-007     0.10000000E+002                6
 RTBSE| Simulation step         Convergence     Electron number  ETRS Iterations
 RTBSE|            3751     0.39127804E-007     0.10000000E+002                6
 RTBSE| Simulation step         Convergence     Electron number  ETRS Iterations
 RTBSE|            3752     0.27648321E-007     0.10000000E+002                6
 RTBSE| Simulation step         Convergence     Electron number  ETRS Iterations
 RTBSE|            3753     0.41494717E-007     0.10000000E+002                6
 RTBSE| Simulation step         Convergence     Electron number  ETRS Iterations
 RTBSE|            3754     0.54744544E-007     0.10000000E+002                6
 RTBSE| Simulation step         Convergence     Electron number  ETRS Iterations
 RTBSE|            3755     0.65366074E-007     0.10000000E+002                6
 RTBSE| Simulation step         Convergence     Electron number  ETRS Iterations
 RTBSE|            3756     0.72571163E-007     0.10000000E+002                6
 RTBSE| Simulation step         Convergence     Electron number  ETRS Iterations
 RTBSE|            3757     0.76247349E-007     0.10000000E+002                6
 RTBSE| Simulation step         Convergence     Electron number  ETRS Iterations
 RTBSE|            3758     0.76958757E-007     0.10000000E+002                6
 RTBSE| Simulation step         Convergence     Electron number  ETRS Iterations
 RTBSE|            3759     0.75727903E-007     0.10000000E+002                6
 RTBSE| Simulation step         Convergence     Electron number  ETRS Iterations
 RTBSE|            3760     0.73827549E-007     0.10000000E+002                6
 RTBSE| Simulation step         Convergence     Electron number  ETRS Iterations
 RTBSE|            3761     0.72587484E-007     0.10000000E+002                6
 RTBSE| Simulation step         Convergence     Electron number  ETRS Iterations
 RTBSE|            3762     0.73094470E-007     0.10000000E+002                6
 RTBSE| Simulation step         Convergence     Electron number  ETRS Iterations
 RTBSE|            3763     0.76083794E-007     0.10000000E+002                6
 RTBSE| Simulation step         Convergence     Electron number  ETRS Iterations
 RTBSE|            3764     0.81659846E-007     0.10000000E+002                6
 RTBSE| Simulation step         Convergence     Electron number  ETRS Iterations
 RTBSE|            3765     0.89369363E-007     0.10000000E+002                6
 RTBSE| Simulation step         Convergence     Electron number  ETRS Iterations
 RTBSE|            3766     0.98160275E-007     0.10000000E+002                6
 RTBSE| Simulation step         Convergence     Electron number  ETRS Iterations
 RTBSE|            3767     0.20042321E-007     0.10000000E+002                7
 RTBSE| Simulation step         Convergence     Electron number  ETRS Iterations
 RTBSE|            3768     0.21690608E-007     0.10000000E+002                7
 RTBSE| Simulation step         Convergence     Electron number  ETRS Iterations
 RTBSE|            3769     0.22763546E-007     0.10000000E+002                7
 RTBSE| Simulation step         Convergence     Electron number  ETRS Iterations
 RTBSE|            3770     0.23028278E-007     0.10000000E+002                7
 RTBSE| Simulation step         Convergence     Electron number  ETRS Iterations
 RTBSE|            3771     0.22322709E-007     0.10000000E+002                7
 RTBSE| Simulation step         Convergence     Electron number  ETRS Iterations
 RTBSE|            3772     0.20641834E-007     0.10000000E+002                7
 RTBSE| Simulation step         Convergence     Electron number  ETRS Iterations
 RTBSE|            3773     0.18061026E-007     0.10000000E+002                7
 RTBSE| Simulation step         Convergence     Electron number  ETRS Iterations
 RTBSE|            3774     0.14743762E-007     0.10000000E+002                7
 RTBSE| Simulation step         Convergence     Electron number  ETRS Iterations
 RTBSE|            3775     0.90088928E-007     0.10000000E+002                6
 RTBSE| Simulation step         Convergence     Electron number  ETRS Iterations
 RTBSE|            3776     0.71134662E-007     0.10000000E+002                6
 RTBSE| Simulation step         Convergence     Electron number  ETRS Iterations
 RTBSE|            3777     0.50726863E-007     0.10000000E+002                6
 RTBSE| Simulation step         Convergence     Electron number  ETRS Iterations
 RTBSE|            3778     0.30138055E-007     0.10000000E+002                6
 RTBSE| Simulation step         Convergence     Electron number  ETRS Iterations
 RTBSE|            3779     0.31876256E-007     0.10000000E+002                6
 RTBSE| Simulation step         Convergence     Electron number  ETRS Iterations
 RTBSE|            3780     0.44374729E-007     0.10000000E+002                6
 RTBSE| Simulation step         Convergence     Electron number  ETRS Iterations
 RTBSE|            3781     0.54046119E-007     0.10000000E+002                6
 RTBSE| Simulation step         Convergence     Electron number  ETRS Iterations
 RTBSE|            3782     0.60261838E-007     0.10000000E+002                6
 RTBSE| Simulation step         Convergence     Electron number  ETRS Iterations
 RTBSE|            3783     0.63195291E-007     0.10000000E+002                6
 RTBSE| Simulation step         Convergence     Electron number  ETRS Iterations
 RTBSE|            3784     0.63510741E-007     0.10000000E+002                6
 RTBSE| Simulation step         Convergence     Electron number  ETRS Iterations
 RTBSE|            3785     0.62111543E-007     0.10000000E+002                6
 RTBSE| Simulation step         Convergence     Electron number  ETRS Iterations
 RTBSE|            3786     0.59997767E-007     0.10000000E+002                6
 RTBSE| Simulation step         Convergence     Electron number  ETRS Iterations
 RTBSE|            3787     0.58141929E-007     0.10000000E+002                6
 RTBSE| Simulation step         Convergence     Electron number  ETRS Iterations
 RTBSE|            3788     0.57293349E-007     0.10000000E+002                6
 RTBSE| Simulation step         Convergence     Electron number  ETRS Iterations
 RTBSE|            3789     0.58020903E-007     0.10000000E+002                6
 RTBSE| Simulation step         Convergence     Electron number  ETRS Iterations
 RTBSE|            3790     0.60499404E-007     0.10000000E+002                6
 RTBSE| Simulation step         Convergence     Electron number  ETRS Iterations
 RTBSE|            3791     0.64536940E-007     0.10000000E+002                6
 RTBSE| Simulation step         Convergence     Electron number  ETRS Iterations
 RTBSE|            3792     0.69627803E-007     0.10000000E+002                6
 RTBSE| Simulation step         Convergence     Electron number  ETRS Iterations
 RTBSE|            3793     0.74958849E-007     0.10000000E+002                6
 RTBSE| Simulation step         Convergence     Electron number  ETRS Iterations
 RTBSE|            3794     0.79528118E-007     0.10000000E+002                6
 RTBSE| Simulation step         Convergence     Electron number  ETRS Iterations
 RTBSE|            3795     0.86352705E-007     0.10000000E+002                6
 RTBSE| Simulation step         Convergence     Electron number  ETRS Iterations
 RTBSE|            3796     0.91354035E-007     0.10000000E+002                6
 RTBSE| Simulation step         Convergence     Electron number  ETRS Iterations
 RTBSE|            3797     0.93416292E-007     0.10000000E+002                6
 RTBSE| Simulation step         Convergence     Electron number  ETRS Iterations
 RTBSE|            3798     0.92335456E-007     0.10000000E+002                6
 RTBSE| Simulation step         Convergence     Electron number  ETRS Iterations
 RTBSE|            3799     0.87124886E-007     0.10000000E+002                6
 RTBSE| Simulation step         Convergence     Electron number  ETRS Iterations
 RTBSE|            3800     0.77666727E-007     0.10000000E+002                6
 RTBSE| Simulation step         Convergence     Electron number  ETRS Iterations
 RTBSE|            3801     0.64329091E-007     0.10000000E+002                6
 RTBSE| Simulation step         Convergence     Electron number  ETRS Iterations
 RTBSE|            3802     0.47920020E-007     0.10000000E+002                6
 RTBSE| Simulation step         Convergence     Electron number  ETRS Iterations
 RTBSE|            3803     0.29606112E-007     0.10000000E+002                6
 RTBSE| Simulation step         Convergence     Electron number  ETRS Iterations
 RTBSE|            3804     0.33167587E-007     0.10000000E+002                6
 RTBSE| Simulation step         Convergence     Electron number  ETRS Iterations
 RTBSE|            3805     0.46252995E-007     0.10000000E+002                6
 RTBSE| Simulation step         Convergence     Electron number  ETRS Iterations
 RTBSE|            3806     0.57492886E-007     0.10000000E+002                6
 RTBSE| Simulation step         Convergence     Electron number  ETRS Iterations
 RTBSE|            3807     0.65775239E-007     0.10000000E+002                6
 RTBSE| Simulation step         Convergence     Electron number  ETRS Iterations
 RTBSE|            3808     0.70793053E-007     0.10000000E+002                6
 RTBSE| Simulation step         Convergence     Electron number  ETRS Iterations
 RTBSE|            3809     0.72923560E-007     0.10000000E+002                6
 RTBSE| Simulation step         Convergence     Electron number  ETRS Iterations
 RTBSE|            3810     0.73014860E-007     0.10000000E+002                6
 RTBSE| Simulation step         Convergence     Electron number  ETRS Iterations
 RTBSE|            3811     0.72268934E-007     0.10000000E+002                6
 RTBSE| Simulation step         Convergence     Electron number  ETRS Iterations
 RTBSE|            3812     0.71944812E-007     0.10000000E+002                6
 RTBSE| Simulation step         Convergence     Electron number  ETRS Iterations
 RTBSE|            3813     0.73203508E-007     0.10000000E+002                6
 RTBSE| Simulation step         Convergence     Electron number  ETRS Iterations
 RTBSE|            3814     0.76693448E-007     0.10000000E+002                6
 RTBSE| Simulation step         Convergence     Electron number  ETRS Iterations
 RTBSE|            3815     0.82743615E-007     0.10000000E+002                6
 RTBSE| Simulation step         Convergence     Electron number  ETRS Iterations
 RTBSE|            3816     0.90912313E-007     0.10000000E+002                6
 RTBSE| Simulation step         Convergence     Electron number  ETRS Iterations
 RTBSE|            3817     0.18474194E-007     0.10000000E+002                7
 RTBSE| Simulation step         Convergence     Electron number  ETRS Iterations
 RTBSE|            3818     0.20519647E-007     0.10000000E+002                7
 RTBSE| Simulation step         Convergence     Electron number  ETRS Iterations
 RTBSE|            3819     0.22339807E-007     0.10000000E+002                7
 RTBSE| Simulation step         Convergence     Electron number  ETRS Iterations
 RTBSE|            3820     0.23605597E-007     0.10000000E+002                7
 RTBSE| Simulation step         Convergence     Electron number  ETRS Iterations
 RTBSE|            3821     0.24063779E-007     0.10000000E+002                7
 RTBSE| Simulation step         Convergence     Electron number  ETRS Iterations
 RTBSE|            3822     0.23524274E-007     0.10000000E+002                7
 RTBSE| Simulation step         Convergence     Electron number  ETRS Iterations
 RTBSE|            3823     0.21962249E-007     0.10000000E+002                7
 RTBSE| Simulation step         Convergence     Electron number  ETRS Iterations
 RTBSE|            3824     0.19426330E-007     0.10000000E+002                7
 RTBSE| Simulation step         Convergence     Electron number  ETRS Iterations
 RTBSE|            3825     0.16105559E-007     0.10000000E+002                7
 RTBSE| Simulation step         Convergence     Electron number  ETRS Iterations
 RTBSE|            3826     0.96848778E-007     0.10000000E+002                6
 RTBSE| Simulation step         Convergence     Electron number  ETRS Iterations
 RTBSE|            3827     0.77545952E-007     0.10000000E+002                6
 RTBSE| Simulation step         Convergence     Electron number  ETRS Iterations
 RTBSE|            3828     0.56510415E-007     0.10000000E+002                6
 RTBSE| Simulation step         Convergence     Electron number  ETRS Iterations
 RTBSE|            3829     0.35105861E-007     0.10000000E+002                6
 RTBSE| Simulation step         Convergence     Electron number  ETRS Iterations
 RTBSE|            3830     0.29089642E-007     0.10000000E+002                6
 RTBSE| Simulation step         Convergence     Electron number  ETRS Iterations
 RTBSE|            3831     0.41759664E-007     0.10000000E+002                6
 RTBSE| Simulation step         Convergence     Electron number  ETRS Iterations
 RTBSE|            3832     0.51804116E-007     0.10000000E+002                6
 RTBSE| Simulation step         Convergence     Electron number  ETRS Iterations
 RTBSE|            3833     0.58272854E-007     0.10000000E+002                6
 RTBSE| Simulation step         Convergence     Electron number  ETRS Iterations
 RTBSE|            3834     0.61280482E-007     0.10000000E+002                6
 RTBSE| Simulation step         Convergence     Electron number  ETRS Iterations
 RTBSE|            3835     0.61453145E-007     0.10000000E+002                6
 RTBSE| Simulation step         Convergence     Electron number  ETRS Iterations
 RTBSE|            3836     0.59766679E-007     0.10000000E+002                6
 RTBSE| Simulation step         Convergence     Electron number  ETRS Iterations
 RTBSE|            3837     0.57277634E-007     0.10000000E+002                6
 RTBSE| Simulation step         Convergence     Electron number  ETRS Iterations
 RTBSE|            3838     0.55041114E-007     0.10000000E+002                6
 RTBSE| Simulation step         Convergence     Electron number  ETRS Iterations
 RTBSE|            3839     0.53981506E-007     0.10000000E+002                6
 RTBSE| Simulation step         Convergence     Electron number  ETRS Iterations
 RTBSE|            3840     0.54640274E-007     0.10000000E+002                6
 RTBSE| Simulation step         Convergence     Electron number  ETRS Iterations
 RTBSE|            3841     0.57296087E-007     0.10000000E+002                6
 RTBSE| Simulation step         Convergence     Electron number  ETRS Iterations
 RTBSE|            3842     0.61750882E-007     0.10000000E+002                6
 RTBSE| Simulation step         Convergence     Electron number  ETRS Iterations
 RTBSE|            3843     0.67532405E-007     0.10000000E+002                6
 RTBSE| Simulation step         Convergence     Electron number  ETRS Iterations
 RTBSE|            3844     0.73851543E-007     0.10000000E+002                6
 RTBSE| Simulation step         Convergence     Electron number  ETRS Iterations
 RTBSE|            3845     0.79712482E-007     0.10000000E+002                6
 RTBSE| Simulation step         Convergence     Electron number  ETRS Iterations
 RTBSE|            3846     0.85128767E-007     0.10000000E+002                6
 RTBSE| Simulation step         Convergence     Electron number  ETRS Iterations
 RTBSE|            3847     0.91695689E-007     0.10000000E+002                6
 RTBSE| Simulation step         Convergence     Electron number  ETRS Iterations
 RTBSE|            3848     0.95359728E-007     0.10000000E+002                6
 RTBSE| Simulation step         Convergence     Electron number  ETRS Iterations
 RTBSE|            3849     0.95568907E-007     0.10000000E+002                6
 RTBSE| Simulation step         Convergence     Electron number  ETRS Iterations
 RTBSE|            3850     0.92230322E-007     0.10000000E+002                6
 RTBSE| Simulation step         Convergence     Electron number  ETRS Iterations
 RTBSE|            3851     0.84540409E-007     0.10000000E+002                6
 RTBSE| Simulation step         Convergence     Electron number  ETRS Iterations
 RTBSE|            3852     0.72687416E-007     0.10000000E+002                6
 RTBSE| Simulation step         Convergence     Electron number  ETRS Iterations
 RTBSE|            3853     0.57364234E-007     0.10000000E+002                6
 RTBSE| Simulation step         Convergence     Electron number  ETRS Iterations
 RTBSE|            3854     0.39605347E-007     0.10000000E+002                6
 RTBSE| Simulation step         Convergence     Electron number  ETRS Iterations
 RTBSE|            3855     0.26956946E-007     0.10000000E+002                6
 RTBSE| Simulation step         Convergence     Electron number  ETRS Iterations
 RTBSE|            3856     0.39880623E-007     0.10000000E+002                6
 RTBSE| Simulation step         Convergence     Electron number  ETRS Iterations
 RTBSE|            3857     0.52096011E-007     0.10000000E+002                6
 RTBSE| Simulation step         Convergence     Electron number  ETRS Iterations
 RTBSE|            3858     0.61682302E-007     0.10000000E+002                6
 RTBSE| Simulation step         Convergence     Electron number  ETRS Iterations
 RTBSE|            3859     0.68096654E-007     0.10000000E+002                6
 RTBSE| Simulation step         Convergence     Electron number  ETRS Iterations
 RTBSE|            3860     0.71471055E-007     0.10000000E+002                6
 RTBSE| Simulation step         Convergence     Electron number  ETRS Iterations
 RTBSE|            3861     0.72532745E-007     0.10000000E+002                6
 RTBSE| Simulation step         Convergence     Electron number  ETRS Iterations
 RTBSE|            3862     0.72386430E-007     0.10000000E+002                6
 RTBSE| Simulation step         Convergence     Electron number  ETRS Iterations
 RTBSE|            3863     0.72298419E-007     0.10000000E+002                6
 RTBSE| Simulation step         Convergence     Electron number  ETRS Iterations
 RTBSE|            3864     0.73507196E-007     0.10000000E+002                6
 RTBSE| Simulation step         Convergence     Electron number  ETRS Iterations
 RTBSE|            3865     0.76885683E-007     0.10000000E+002                6
 RTBSE| Simulation step         Convergence     Electron number  ETRS Iterations
 RTBSE|            3866     0.82894777E-007     0.10000000E+002                6
 RTBSE| Simulation step         Convergence     Electron number  ETRS Iterations
 RTBSE|            3867     0.91273659E-007     0.10000000E+002                6
 RTBSE| Simulation step         Convergence     Electron number  ETRS Iterations
 RTBSE|            3868     0.18566431E-007     0.10000000E+002                7
 RTBSE| Simulation step         Convergence     Electron number  ETRS Iterations
 RTBSE|            3869     0.20742521E-007     0.10000000E+002                7
 RTBSE| Simulation step         Convergence     Electron number  ETRS Iterations
 RTBSE|            3870     0.22735732E-007     0.10000000E+002                7
 RTBSE| Simulation step         Convergence     Electron number  ETRS Iterations
 RTBSE|            3871     0.24215301E-007     0.10000000E+002                7
 RTBSE| Simulation step         Convergence     Electron number  ETRS Iterations
 RTBSE|            3872     0.24889982E-007     0.10000000E+002                7
 RTBSE| Simulation step         Convergence     Electron number  ETRS Iterations
 RTBSE|            3873     0.24551320E-007     0.10000000E+002                7
 RTBSE| Simulation step         Convergence     Electron number  ETRS Iterations
 RTBSE|            3874     0.23111720E-007     0.10000000E+002                7
 RTBSE| Simulation step         Convergence     Electron number  ETRS Iterations
 RTBSE|            3875     0.20644783E-007     0.10000000E+002                7
 RTBSE| Simulation step         Convergence     Electron number  ETRS Iterations
 RTBSE|            3876     0.17318718E-007     0.10000000E+002                7
 RTBSE| Simulation step         Convergence     Electron number  ETRS Iterations
 RTBSE|            3877     0.13377676E-007     0.10000000E+002                7
 RTBSE| Simulation step         Convergence     Electron number  ETRS Iterations
 RTBSE|            3878     0.83154448E-007     0.10000000E+002                6
 RTBSE| Simulation step         Convergence     Electron number  ETRS Iterations
 RTBSE|            3879     0.61713738E-007     0.10000000E+002                6
 RTBSE| Simulation step         Convergence     Electron number  ETRS Iterations
 RTBSE|            3880     0.39848617E-007     0.10000000E+002                6
 RTBSE| Simulation step         Convergence     Electron number  ETRS Iterations
 RTBSE|            3881     0.25973734E-007     0.10000000E+002                6
 RTBSE| Simulation step         Convergence     Electron number  ETRS Iterations
 RTBSE|            3882     0.38450674E-007     0.10000000E+002                6
 RTBSE| Simulation step         Convergence     Electron number  ETRS Iterations
 RTBSE|            3883     0.48682163E-007     0.10000000E+002                6
 RTBSE| Simulation step         Convergence     Electron number  ETRS Iterations
 RTBSE|            3884     0.55338783E-007     0.10000000E+002                6
 RTBSE| Simulation step         Convergence     Electron number  ETRS Iterations
 RTBSE|            3885     0.58420878E-007     0.10000000E+002                6
 RTBSE| Simulation step         Convergence     Electron number  ETRS Iterations
 RTBSE|            3886     0.58587819E-007     0.10000000E+002                6
 RTBSE| Simulation step         Convergence     Electron number  ETRS Iterations
 RTBSE|            3887     0.56813001E-007     0.10000000E+002                6
 RTBSE| Simulation step         Convergence     Electron number  ETRS Iterations
 RTBSE|            3888     0.54203486E-007     0.10000000E+002                6
 RTBSE| Simulation step         Convergence     Electron number  ETRS Iterations
 RTBSE|            3889     0.51901885E-007     0.10000000E+002                6
 RTBSE| Simulation step         Convergence     Electron number  ETRS Iterations
 RTBSE|            3890     0.50834166E-007     0.10000000E+002                6
 RTBSE| Simulation step         Convergence     Electron number  ETRS Iterations
 RTBSE|            3891     0.51593746E-007     0.10000000E+002                6
 RTBSE| Simulation step         Convergence     Electron number  ETRS Iterations
 RTBSE|            3892     0.54546063E-007     0.10000000E+002                6
 RTBSE| Simulation step         Convergence     Electron number  ETRS Iterations
 RTBSE|            3893     0.59587987E-007     0.10000000E+002                6
 RTBSE| Simulation step         Convergence     Electron number  ETRS Iterations
 RTBSE|            3894     0.66231034E-007     0.10000000E+002                6
 RTBSE| Simulation step         Convergence     Electron number  ETRS Iterations
 RTBSE|            3895     0.73645673E-007     0.10000000E+002                6
 RTBSE| Simulation step         Convergence     Electron number  ETRS Iterations
 RTBSE|            3896     0.80801007E-007     0.10000000E+002                6
 RTBSE| Simulation step         Convergence     Electron number  ETRS Iterations
 RTBSE|            3897     0.86524631E-007     0.10000000E+002                6
 RTBSE| Simulation step         Convergence     Electron number  ETRS Iterations
 RTBSE|            3898     0.93050665E-007     0.10000000E+002                6
 RTBSE| Simulation step         Convergence     Electron number  ETRS Iterations
 RTBSE|            3899     0.98491041E-007     0.10000000E+002                6
 RTBSE| Simulation step         Convergence     Electron number  ETRS Iterations
 RTBSE|            3900     0.15708336E-007     0.10000000E+002                7
 RTBSE| Simulation step         Convergence     Electron number  ETRS Iterations
 RTBSE|            3901     0.97964915E-007     0.10000000E+002                6
 RTBSE| Simulation step         Convergence     Electron number  ETRS Iterations
 RTBSE|            3902     0.91596452E-007     0.10000000E+002                6
 RTBSE| Simulation step         Convergence     Electron number  ETRS Iterations
 RTBSE|            3903     0.80674346E-007     0.10000000E+002                6
 RTBSE| Simulation step         Convergence     Electron number  ETRS Iterations
 RTBSE|            3904     0.65769437E-007     0.10000000E+002                6
 RTBSE| Simulation step         Convergence     Electron number  ETRS Iterations
 RTBSE|            3905     0.47904573E-007     0.10000000E+002                6
 RTBSE| Simulation step         Convergence     Electron number  ETRS Iterations
 RTBSE|            3906     0.28442141E-007     0.10000000E+002                6
 RTBSE| Simulation step         Convergence     Electron number  ETRS Iterations
 RTBSE|            3907     0.35664824E-007     0.10000000E+002                6
 RTBSE| Simulation step         Convergence     Electron number  ETRS Iterations
 RTBSE|            3908     0.48570282E-007     0.10000000E+002                6
 RTBSE| Simulation step         Convergence     Electron number  ETRS Iterations
 RTBSE|            3909     0.59113834E-007     0.10000000E+002                6
 RTBSE| Simulation step         Convergence     Electron number  ETRS Iterations
 RTBSE|            3910     0.66367240E-007     0.10000000E+002                6
 RTBSE| Simulation step         Convergence     Electron number  ETRS Iterations
 RTBSE|            3911     0.70315493E-007     0.10000000E+002                6
 RTBSE| Simulation step         Convergence     Electron number  ETRS Iterations
 RTBSE|            3912     0.71623046E-007     0.10000000E+002                6
 RTBSE| Simulation step         Convergence     Electron number  ETRS Iterations
 RTBSE|            3913     0.71406540E-007     0.10000000E+002                6
 RTBSE| Simulation step         Convergence     Electron number  ETRS Iterations
 RTBSE|            3914     0.71096879E-007     0.10000000E+002                6
 RTBSE| Simulation step         Convergence     Electron number  ETRS Iterations
 RTBSE|            3915     0.72005521E-007     0.10000000E+002                6
 RTBSE| Simulation step         Convergence     Electron number  ETRS Iterations
 RTBSE|            3916     0.75208004E-007     0.10000000E+002                6
 RTBSE| Simulation step         Convergence     Electron number  ETRS Iterations
 RTBSE|            3917     0.81171437E-007     0.10000000E+002                6
 RTBSE| Simulation step         Convergence     Electron number  ETRS Iterations
 RTBSE|            3918     0.89782265E-007     0.10000000E+002                6
 RTBSE| Simulation step         Convergence     Electron number  ETRS Iterations
 RTBSE|            3919     0.18311510E-007     0.10000000E+002                7
 RTBSE| Simulation step         Convergence     Electron number  ETRS Iterations
 RTBSE|            3920     0.20632869E-007     0.10000000E+002                7
 RTBSE| Simulation step         Convergence     Electron number  ETRS Iterations
 RTBSE|            3921     0.22818654E-007     0.10000000E+002                7
 RTBSE| Simulation step         Convergence     Electron number  ETRS Iterations
 RTBSE|            3922     0.24531032E-007     0.10000000E+002                7
 RTBSE| Simulation step         Convergence     Electron number  ETRS Iterations
 RTBSE|            3923     0.25435363E-007     0.10000000E+002                7
 RTBSE| Simulation step         Convergence     Electron number  ETRS Iterations
 RTBSE|            3924     0.25313756E-007     0.10000000E+002                7
 RTBSE| Simulation step         Convergence     Electron number  ETRS Iterations
 RTBSE|            3925     0.24066733E-007     0.10000000E+002                7
 RTBSE| Simulation step         Convergence     Electron number  ETRS Iterations
 RTBSE|            3926     0.21759595E-007     0.10000000E+002                7
 RTBSE| Simulation step         Convergence     Electron number  ETRS Iterations
 RTBSE|            3927     0.18541290E-007     0.10000000E+002                7
 RTBSE| Simulation step         Convergence     Electron number  ETRS Iterations
 RTBSE|            3928     0.14646872E-007     0.10000000E+002                7
 RTBSE| Simulation step         Convergence     Electron number  ETRS Iterations
 RTBSE|            3929     0.89362502E-007     0.10000000E+002                6
 RTBSE| Simulation step         Convergence     Electron number  ETRS Iterations
 RTBSE|            3930     0.68180479E-007     0.10000000E+002                6
 RTBSE| Simulation step         Convergence     Electron number  ETRS Iterations
 RTBSE|            3931     0.46357122E-007     0.10000000E+002                6
 RTBSE| Simulation step         Convergence     Electron number  ETRS Iterations
 RTBSE|            3932     0.25347720E-007     0.10000000E+002                6
 RTBSE| Simulation step         Convergence     Electron number  ETRS Iterations
 RTBSE|            3933     0.33374187E-007     0.10000000E+002                6
 RTBSE| Simulation step         Convergence     Electron number  ETRS Iterations
 RTBSE|            3934     0.43789951E-007     0.10000000E+002                6
 RTBSE| Simulation step         Convergence     Electron number  ETRS Iterations
 RTBSE|            3935     0.50878002E-007     0.10000000E+002                6
 RTBSE| Simulation step         Convergence     Electron number  ETRS Iterations
 RTBSE|            3936     0.54452983E-007     0.10000000E+002                6
 RTBSE| Simulation step         Convergence     Electron number  ETRS Iterations
 RTBSE|            3937     0.55069729E-007     0.10000000E+002                6
 RTBSE| Simulation step         Convergence     Electron number  ETRS Iterations
 RTBSE|            3938     0.53686512E-007     0.10000000E+002                6
 RTBSE| Simulation step         Convergence     Electron number  ETRS Iterations
 RTBSE|            3939     0.51429387E-007     0.10000000E+002                6
 RTBSE| Simulation step         Convergence     Electron number  ETRS Iterations
 RTBSE|            3940     0.49429371E-007     0.10000000E+002                6
 RTBSE| Simulation step         Convergence     Electron number  ETRS Iterations
 RTBSE|            3941     0.48717892E-007     0.10000000E+002                6
 RTBSE| Simulation step         Convergence     Electron number  ETRS Iterations
 RTBSE|            3942     0.49967495E-007     0.10000000E+002                6
 RTBSE| Simulation step         Convergence     Electron number  ETRS Iterations
 RTBSE|            3943     0.53528793E-007     0.10000000E+002                6
 RTBSE| Simulation step         Convergence     Electron number  ETRS Iterations
 RTBSE|            3944     0.59283654E-007     0.10000000E+002                6
 RTBSE| Simulation step         Convergence     Electron number  ETRS Iterations
 RTBSE|            3945     0.66757809E-007     0.10000000E+002                6
 RTBSE| Simulation step         Convergence     Electron number  ETRS Iterations
 RTBSE|            3946     0.75162002E-007     0.10000000E+002                6
 RTBSE| Simulation step         Convergence     Electron number  ETRS Iterations
 RTBSE|            3947     0.83414877E-007     0.10000000E+002                6
 RTBSE| Simulation step         Convergence     Electron number  ETRS Iterations
 RTBSE|            3948     0.90272832E-007     0.10000000E+002                6
 RTBSE| Simulation step         Convergence     Electron number  ETRS Iterations
 RTBSE|            3949     0.95765461E-007     0.10000000E+002                6
 RTBSE| Simulation step         Convergence     Electron number  ETRS Iterations
 RTBSE|            3950     0.17140989E-007     0.10000000E+002                7
 RTBSE| Simulation step         Convergence     Electron number  ETRS Iterations
 RTBSE|            3951     0.16751013E-007     0.10000000E+002                7
 RTBSE| Simulation step         Convergence     Electron number  ETRS Iterations
 RTBSE|            3952     0.15525861E-007     0.10000000E+002                7
 RTBSE| Simulation step         Convergence     Electron number  ETRS Iterations
 RTBSE|            3953     0.97377892E-007     0.10000000E+002                6
 RTBSE| Simulation step         Convergence     Electron number  ETRS Iterations
 RTBSE|            3954     0.86891133E-007     0.10000000E+002                6
 RTBSE| Simulation step         Convergence     Electron number  ETRS Iterations
 RTBSE|            3955     0.72088509E-007     0.10000000E+002                6
 RTBSE| Simulation step         Convergence     Electron number  ETRS Iterations
 RTBSE|            3956     0.54050764E-007     0.10000000E+002                6
 RTBSE| Simulation step         Convergence     Electron number  ETRS Iterations
 RTBSE|            3957     0.34180571E-007     0.10000000E+002                6
 RTBSE| Simulation step         Convergence     Electron number  ETRS Iterations
 RTBSE|            3958     0.32057626E-007     0.10000000E+002                6
 RTBSE| Simulation step         Convergence     Electron number  ETRS Iterations
 RTBSE|            3959     0.45016905E-007     0.10000000E+002                6
 RTBSE| Simulation step         Convergence     Electron number  ETRS Iterations
 RTBSE|            3960     0.55943800E-007     0.10000000E+002                6
 RTBSE| Simulation step         Convergence     Electron number  ETRS Iterations
 RTBSE|            3961     0.63579367E-007     0.10000000E+002                6
 RTBSE| Simulation step         Convergence     Electron number  ETRS Iterations
 RTBSE|            3962     0.67856227E-007     0.10000000E+002                6
 RTBSE| Simulation step         Convergence     Electron number  ETRS Iterations
 RTBSE|            3963     0.69410674E-007     0.10000000E+002                6
 RTBSE| Simulation step         Convergence     Electron number  ETRS Iterations
 RTBSE|            3964     0.69373378E-007     0.10000000E+002                6
 RTBSE| Simulation step         Convergence     Electron number  ETRS Iterations
 RTBSE|            3965     0.69187954E-007     0.10000000E+002                6
 RTBSE| Simulation step         Convergence     Electron number  ETRS Iterations
 RTBSE|            3966     0.70200755E-007     0.10000000E+002                6
 RTBSE| Simulation step         Convergence     Electron number  ETRS Iterations
 RTBSE|            3967     0.73542403E-007     0.10000000E+002                6
 RTBSE| Simulation step         Convergence     Electron number  ETRS Iterations
 RTBSE|            3968     0.79764548E-007     0.10000000E+002                6
 RTBSE| Simulation step         Convergence     Electron number  ETRS Iterations
 RTBSE|            3969     0.88754706E-007     0.10000000E+002                6
 RTBSE| Simulation step         Convergence     Electron number  ETRS Iterations
 RTBSE|            3970     0.99730872E-007     0.10000000E+002                6
 RTBSE| Simulation step         Convergence     Electron number  ETRS Iterations
 RTBSE|            3971     0.20596026E-007     0.10000000E+002                7
 RTBSE| Simulation step         Convergence     Electron number  ETRS Iterations
 RTBSE|            3972     0.22943900E-007     0.10000000E+002                7
 RTBSE| Simulation step         Convergence     Electron number  ETRS Iterations
 RTBSE|            3973     0.24848942E-007     0.10000000E+002                7
 RTBSE| Simulation step         Convergence     Electron number  ETRS Iterations
 RTBSE|            3974     0.25995865E-007     0.10000000E+002                7
 RTBSE| Simulation step         Convergence     Electron number  ETRS Iterations
 RTBSE|            3975     0.26105268E-007     0.10000000E+002                7
 RTBSE| Simulation step         Convergence     Electron number  ETRS Iterations
 RTBSE|            3976     0.25095612E-007     0.10000000E+002                7
 RTBSE| Simulation step         Convergence     Electron number  ETRS Iterations
 RTBSE|            3977     0.22961638E-007     0.10000000E+002                7
 RTBSE| Simulation step         Convergence     Electron number  ETRS Iterations
 RTBSE|            3978     0.19873290E-007     0.10000000E+002                7
 RTBSE| Simulation step         Convergence     Electron number  ETRS Iterations
 RTBSE|            3979     0.16067856E-007     0.10000000E+002                7
 RTBSE| Simulation step         Convergence     Electron number  ETRS Iterations
 RTBSE|            3980     0.96614953E-007     0.10000000E+002                6
 RTBSE| Simulation step         Convergence     Electron number  ETRS Iterations
 RTBSE|            3981     0.75735088E-007     0.10000000E+002                6
 RTBSE| Simulation step         Convergence     Electron number  ETRS Iterations
 RTBSE|            3982     0.53910231E-007     0.10000000E+002                6
 RTBSE| Simulation step         Convergence     Electron number  ETRS Iterations
 RTBSE|            3983     0.32626039E-007     0.10000000E+002                6
 RTBSE| Simulation step         Convergence     Electron number  ETRS Iterations
 RTBSE|            3984     0.28526214E-007     0.10000000E+002                6
 RTBSE| Simulation step         Convergence     Electron number  ETRS Iterations
 RTBSE|            3985     0.39092246E-007     0.10000000E+002                6
 RTBSE| Simulation step         Convergence     Electron number  ETRS Iterations
 RTBSE|            3986     0.46772847E-007     0.10000000E+002                6
 RTBSE| Simulation step         Convergence     Electron number  ETRS Iterations
 RTBSE|            3987     0.51100292E-007     0.10000000E+002                6
 RTBSE| Simulation step         Convergence     Electron number  ETRS Iterations
 RTBSE|            3988     0.52475932E-007     0.10000000E+002                6
 RTBSE| Simulation step         Convergence     Electron number  ETRS Iterations
 RTBSE|            3989     0.51817661E-007     0.10000000E+002                6
 RTBSE| Simulation step         Convergence     Electron number  ETRS Iterations
 RTBSE|            3990     0.50251398E-007     0.10000000E+002                6
 RTBSE| Simulation step         Convergence     Electron number  ETRS Iterations
 RTBSE|            3991     0.48899631E-007     0.10000000E+002                6
 RTBSE| Simulation step         Convergence     Electron number  ETRS Iterations
 RTBSE|            3992     0.48772784E-007     0.10000000E+002                6
 RTBSE| Simulation step         Convergence     Electron number  ETRS Iterations
 RTBSE|            3993     0.50559392E-007     0.10000000E+002                6
 RTBSE| Simulation step         Convergence     Electron number  ETRS Iterations
 RTBSE|            3994     0.54572767E-007     0.10000000E+002                6
 RTBSE| Simulation step         Convergence     Electron number  ETRS Iterations
 RTBSE|            3995     0.60745387E-007     0.10000000E+002                6
 RTBSE| Simulation step         Convergence     Electron number  ETRS Iterations
 RTBSE|            3996     0.68596961E-007     0.10000000E+002                6
 RTBSE| Simulation step         Convergence     Electron number  ETRS Iterations
 RTBSE|            3997     0.77308898E-007     0.10000000E+002                6
 RTBSE| Simulation step         Convergence     Electron number  ETRS Iterations
 RTBSE|            3998     0.85790041E-007     0.10000000E+002                6
 RTBSE| Simulation step         Convergence     Electron number  ETRS Iterations
 RTBSE|            3999     0.92890282E-007     0.10000000E+002                6
 RTBSE| Simulation step         Convergence     Electron number  ETRS Iterations
 RTBSE|            4000     0.97513079E-007     0.10000000E+002                6
 RTBSE| Simulation step         Convergence     Electron number  ETRS Iterations
 RTBSE|            4001     0.17628089E-007     0.10000000E+002                7
 RTBSE| Simulation step         Convergence     Electron number  ETRS Iterations
 RTBSE|            4002     0.17293044E-007     0.10000000E+002                7
 RTBSE| Simulation step         Convergence     Electron number  ETRS Iterations
 RTBSE|            4003     0.16116193E-007     0.10000000E+002                7
 RTBSE| Simulation step         Convergence     Electron number  ETRS Iterations
 RTBSE|            4004     0.14091449E-007     0.10000000E+002                7
 RTBSE| Simulation step         Convergence     Electron number  ETRS Iterations
 RTBSE|            4005     0.89867428E-007     0.10000000E+002                6
 RTBSE| Simulation step         Convergence     Electron number  ETRS Iterations
 RTBSE|            4006     0.75455919E-007     0.10000000E+002                6
 RTBSE| Simulation step         Convergence     Electron number  ETRS Iterations
 RTBSE|            4007     0.57783199E-007     0.10000000E+002                6
 RTBSE| Simulation step         Convergence     Electron number  ETRS Iterations
 RTBSE|            4008     0.38268387E-007     0.10000000E+002                6
 RTBSE| Simulation step         Convergence     Electron number  ETRS Iterations
 RTBSE|            4009     0.28471918E-007     0.10000000E+002                6
 RTBSE| Simulation step         Convergence     Electron number  ETRS Iterations
 RTBSE|            4010     0.40970631E-007     0.10000000E+002                6
 RTBSE| Simulation step         Convergence     Electron number  ETRS Iterations
 RTBSE|            4011     0.51909462E-007     0.10000000E+002                6
 RTBSE| Simulation step         Convergence     Electron number  ETRS Iterations
 RTBSE|            4012     0.59731451E-007     0.10000000E+002                6
 RTBSE| Simulation step         Convergence     Electron number  ETRS Iterations
 RTBSE|            4013     0.64264785E-007     0.10000000E+002                6
 RTBSE| Simulation step         Convergence     Electron number  ETRS Iterations
 RTBSE|            4014     0.66101645E-007     0.10000000E+002                6
 RTBSE| Simulation step         Convergence     Electron number  ETRS Iterations
 RTBSE|            4015     0.66309083E-007     0.10000000E+002                6
 RTBSE| Simulation step         Convergence     Electron number  ETRS Iterations
 RTBSE|            4016     0.66310316E-007     0.10000000E+002                6
 RTBSE| Simulation step         Convergence     Electron number  ETRS Iterations
 RTBSE|            4017     0.67476811E-007     0.10000000E+002                6
 RTBSE| Simulation step         Convergence     Electron number  ETRS Iterations
 RTBSE|            4018     0.70974401E-007     0.10000000E+002                6
 RTBSE| Simulation step         Convergence     Electron number  ETRS Iterations
 RTBSE|            4019     0.77378304E-007     0.10000000E+002                6
 RTBSE| Simulation step         Convergence     Electron number  ETRS Iterations
 RTBSE|            4020     0.86739438E-007     0.10000000E+002                6
 RTBSE| Simulation step         Convergence     Electron number  ETRS Iterations
 RTBSE|            4021     0.98336223E-007     0.10000000E+002                6
 RTBSE| Simulation step         Convergence     Electron number  ETRS Iterations
 RTBSE|            4022     0.20385118E-007     0.10000000E+002                7
 RTBSE| Simulation step         Convergence     Electron number  ETRS Iterations
 RTBSE|            4023     0.22960001E-007     0.10000000E+002                7
 RTBSE| Simulation step         Convergence     Electron number  ETRS Iterations
 RTBSE|            4024     0.25140885E-007     0.10000000E+002                7
 RTBSE| Simulation step         Convergence     Electron number  ETRS Iterations
 RTBSE|            4025     0.26575728E-007     0.10000000E+002                7
 RTBSE| Simulation step         Convergence     Electron number  ETRS Iterations
 RTBSE|            4026     0.26982213E-007     0.10000000E+002                7
 RTBSE| Simulation step         Convergence     Electron number  ETRS Iterations
 RTBSE|            4027     0.26235423E-007     0.10000000E+002                7
 RTBSE| Simulation step         Convergence     Electron number  ETRS Iterations
 RTBSE|            4028     0.24310999E-007     0.10000000E+002                7
 RTBSE| Simulation step         Convergence     Electron number  ETRS Iterations
 RTBSE|            4029     0.21359708E-007     0.10000000E+002                7
 RTBSE| Simulation step         Convergence     Electron number  ETRS Iterations
 RTBSE|            4030     0.17607091E-007     0.10000000E+002                7
 RTBSE| Simulation step         Convergence     Electron number  ETRS Iterations
 RTBSE|            4031     0.13347809E-007     0.10000000E+002                7
 RTBSE| Simulation step         Convergence     Electron number  ETRS Iterations
 RTBSE|            4032     0.83705674E-007     0.10000000E+002                6
 RTBSE| Simulation step         Convergence     Electron number  ETRS Iterations
 RTBSE|            4033     0.61612931E-007     0.10000000E+002                6
 RTBSE| Simulation step         Convergence     Electron number  ETRS Iterations
 RTBSE|            4034     0.39875298E-007     0.10000000E+002                6
 RTBSE| Simulation step         Convergence     Electron number  ETRS Iterations
 RTBSE|            4035     0.24729281E-007     0.10000000E+002                6
 RTBSE| Simulation step         Convergence     Electron number  ETRS Iterations
 RTBSE|            4036     0.35358426E-007     0.10000000E+002                6
 RTBSE| Simulation step         Convergence     Electron number  ETRS Iterations
 RTBSE|            4037     0.43800981E-007     0.10000000E+002                6
 RTBSE| Simulation step         Convergence     Electron number  ETRS Iterations
 RTBSE|            4038     0.49008962E-007     0.10000000E+002                6
 RTBSE| Simulation step         Convergence     Electron number  ETRS Iterations
 RTBSE|            4039     0.51280995E-007     0.10000000E+002                6
 RTBSE| Simulation step         Convergence     Electron number  ETRS Iterations
 RTBSE|            4040     0.51433264E-007     0.10000000E+002                6
 RTBSE| Simulation step         Convergence     Electron number  ETRS Iterations
 RTBSE|            4041     0.50495105E-007     0.10000000E+002                6
 RTBSE| Simulation step         Convergence     Electron number  ETRS Iterations
 RTBSE|            4042     0.49595280E-007     0.10000000E+002                6
 RTBSE| Simulation step         Convergence     Electron number  ETRS Iterations
 RTBSE|            4043     0.49660487E-007     0.10000000E+002                6
 RTBSE| Simulation step         Convergence     Electron number  ETRS Iterations
 RTBSE|            4044     0.51453047E-007     0.10000000E+002                6
 RTBSE| Simulation step         Convergence     Electron number  ETRS Iterations
 RTBSE|            4045     0.55349505E-007     0.10000000E+002                6
 RTBSE| Simulation step         Convergence     Electron number  ETRS Iterations
 RTBSE|            4046     0.61249436E-007     0.10000000E+002                6
 RTBSE| Simulation step         Convergence     Electron number  ETRS Iterations
 RTBSE|            4047     0.68759104E-007     0.10000000E+002                6
 RTBSE| Simulation step         Convergence     Electron number  ETRS Iterations
 RTBSE|            4048     0.77156988E-007     0.10000000E+002                6
 RTBSE| Simulation step         Convergence     Electron number  ETRS Iterations
 RTBSE|            4049     0.85445420E-007     0.10000000E+002                6
 RTBSE| Simulation step         Convergence     Electron number  ETRS Iterations
 RTBSE|            4050     0.92473947E-007     0.10000000E+002                6
 RTBSE| Simulation step         Convergence     Electron number  ETRS Iterations
 RTBSE|            4051     0.97123700E-007     0.10000000E+002                6
 RTBSE| Simulation step         Convergence     Electron number  ETRS Iterations
 RTBSE|            4052     0.17580508E-007     0.10000000E+002                7
 RTBSE| Simulation step         Convergence     Electron number  ETRS Iterations
 RTBSE|            4053     0.17359273E-007     0.10000000E+002                7
 RTBSE| Simulation step         Convergence     Electron number  ETRS Iterations
 RTBSE|            4054     0.16325034E-007     0.10000000E+002                7
 RTBSE| Simulation step         Convergence     Electron number  ETRS Iterations
 RTBSE|            4055     0.14482743E-007     0.10000000E+002                7
 RTBSE| Simulation step         Convergence     Electron number  ETRS Iterations
 RTBSE|            4056     0.91287897E-007     0.10000000E+002                6
 RTBSE| Simulation step         Convergence     Electron number  ETRS Iterations
 RTBSE|            4057     0.78072400E-007     0.10000000E+002                6
 RTBSE| Simulation step         Convergence     Electron number  ETRS Iterations
 RTBSE|            4058     0.61597531E-007     0.10000000E+002                6
 RTBSE| Simulation step         Convergence     Electron number  ETRS Iterations
 RTBSE|            4059     0.43142103E-007     0.10000000E+002                6
 RTBSE| Simulation step         Convergence     Electron number  ETRS Iterations
 RTBSE|            4060     0.24244230E-007     0.10000000E+002                6
 RTBSE| Simulation step         Convergence     Electron number  ETRS Iterations
 RTBSE|            4061     0.34838931E-007     0.10000000E+002                6
 RTBSE| Simulation step         Convergence     Electron number  ETRS Iterations
 RTBSE|            4062     0.45365820E-007     0.10000000E+002                6
 RTBSE| Simulation step         Convergence     Electron number  ETRS Iterations
 RTBSE|            4063     0.53240742E-007     0.10000000E+002                6
 RTBSE| Simulation step         Convergence     Electron number  ETRS Iterations
 RTBSE|            4064     0.58090828E-007     0.10000000E+002                6
 RTBSE| Simulation step         Convergence     Electron number  ETRS Iterations
 RTBSE|            4065     0.60393440E-007     0.10000000E+002                6
 RTBSE| Simulation step         Convergence     Electron number  ETRS Iterations
 RTBSE|            4066     0.61134940E-007     0.10000000E+002                6
 RTBSE| Simulation step         Convergence     Electron number  ETRS Iterations
 RTBSE|            4067     0.61695321E-007     0.10000000E+002                6
 RTBSE| Simulation step         Convergence     Electron number  ETRS Iterations
 RTBSE|            4068     0.63566123E-007     0.10000000E+002                6
 RTBSE| Simulation step         Convergence     Electron number  ETRS Iterations
 RTBSE|            4069     0.67810216E-007     0.10000000E+002                6
 RTBSE| Simulation step         Convergence     Electron number  ETRS Iterations
 RTBSE|            4070     0.75117652E-007     0.10000000E+002                6
 RTBSE| Simulation step         Convergence     Electron number  ETRS Iterations
 RTBSE|            4071     0.85582173E-007     0.10000000E+002                6
 RTBSE| Simulation step         Convergence     Electron number  ETRS Iterations
 RTBSE|            4072     0.98435826E-007     0.10000000E+002                6
 RTBSE| Simulation step         Convergence     Electron number  ETRS Iterations
 RTBSE|            4073     0.20566581E-007     0.10000000E+002                7
 RTBSE| Simulation step         Convergence     Electron number  ETRS Iterations
 RTBSE|            4074     0.23426697E-007     0.10000000E+002                7
 RTBSE| Simulation step         Convergence     Electron number  ETRS Iterations
 RTBSE|            4075     0.25905006E-007     0.10000000E+002                7
 RTBSE| Simulation step         Convergence     Electron number  ETRS Iterations
 RTBSE|            4076     0.27639287E-007     0.10000000E+002                7
 RTBSE| Simulation step         Convergence     Electron number  ETRS Iterations
 RTBSE|            4077     0.28299146E-007     0.10000000E+002                7
 RTBSE| Simulation step         Convergence     Electron number  ETRS Iterations
 RTBSE|            4078     0.27731390E-007     0.10000000E+002                7
 RTBSE| Simulation step         Convergence     Electron number  ETRS Iterations
 RTBSE|            4079     0.25922320E-007     0.10000000E+002                7
 RTBSE| Simulation step         Convergence     Electron number  ETRS Iterations
 RTBSE|            4080     0.22994811E-007     0.10000000E+002                7
 RTBSE| Simulation step         Convergence     Electron number  ETRS Iterations
 RTBSE|            4081     0.19184667E-007     0.10000000E+002                7
 RTBSE| Simulation step         Convergence     Electron number  ETRS Iterations
 RTBSE|            4082     0.14828510E-007     0.10000000E+002                7
 RTBSE| Simulation step         Convergence     Electron number  ETRS Iterations
 RTBSE|            4083     0.91580870E-007     0.10000000E+002                6
 RTBSE| Simulation step         Convergence     Electron number  ETRS Iterations
 RTBSE|            4084     0.68767452E-007     0.10000000E+002                6
 RTBSE| Simulation step         Convergence     Electron number  ETRS Iterations
 RTBSE|            4085     0.46061794E-007     0.10000000E+002                6
 RTBSE| Simulation step         Convergence     Electron number  ETRS Iterations
 RTBSE|            4086     0.24949906E-007     0.10000000E+002                6
 RTBSE| Simulation step         Convergence     Electron number  ETRS Iterations
 RTBSE|            4087     0.33402712E-007     0.10000000E+002                6
 RTBSE| Simulation step         Convergence     Electron number  ETRS Iterations
 RTBSE|            4088     0.42583527E-007     0.10000000E+002                6
 RTBSE| Simulation step         Convergence     Electron number  ETRS Iterations
 RTBSE|            4089     0.48552847E-007     0.10000000E+002                6
 RTBSE| Simulation step         Convergence     Electron number  ETRS Iterations
 RTBSE|            4090     0.51410827E-007     0.10000000E+002                6
 RTBSE| Simulation step         Convergence     Electron number  ETRS Iterations
 RTBSE|            4091     0.51891816E-007     0.10000000E+002                6
 RTBSE| Simulation step         Convergence     Electron number  ETRS Iterations
 RTBSE|            4092     0.50994809E-007     0.10000000E+002                6
 RTBSE| Simulation step         Convergence     Electron number  ETRS Iterations
 RTBSE|            4093     0.49840698E-007     0.10000000E+002                6
 RTBSE| Simulation step         Convergence     Electron number  ETRS Iterations
 RTBSE|            4094     0.49466420E-007     0.10000000E+002                6
 RTBSE| Simulation step         Convergence     Electron number  ETRS Iterations
 RTBSE|            4095     0.50730157E-007     0.10000000E+002                6
 RTBSE| Simulation step         Convergence     Electron number  ETRS Iterations
 RTBSE|            4096     0.54027023E-007     0.10000000E+002                6
 RTBSE| Simulation step         Convergence     Electron number  ETRS Iterations
 RTBSE|            4097     0.59441412E-007     0.10000000E+002                6
 RTBSE| Simulation step         Convergence     Electron number  ETRS Iterations
 RTBSE|            4098     0.66623302E-007     0.10000000E+002                6
 RTBSE| Simulation step         Convergence     Electron number  ETRS Iterations
 RTBSE|            4099     0.74907254E-007     0.10000000E+002                6
 RTBSE| Simulation step         Convergence     Electron number  ETRS Iterations
 RTBSE|            4100     0.83348325E-007     0.10000000E+002                6
 RTBSE| Simulation step         Convergence     Electron number  ETRS Iterations
 RTBSE|            4101     0.90811091E-007     0.10000000E+002                6
 RTBSE| Simulation step         Convergence     Electron number  ETRS Iterations
 RTBSE|            4102     0.96195693E-007     0.10000000E+002                6
 RTBSE| Simulation step         Convergence     Electron number  ETRS Iterations
 RTBSE|            4103     0.17499129E-007     0.10000000E+002                7
 RTBSE| Simulation step         Convergence     Electron number  ETRS Iterations
 RTBSE|            4104     0.17480719E-007     0.10000000E+002                7
 RTBSE| Simulation step         Convergence     Electron number  ETRS Iterations
 RTBSE|            4105     0.16694745E-007     0.10000000E+002                7
 RTBSE| Simulation step         Convergence     Electron number  ETRS Iterations
 RTBSE|            4106     0.15093148E-007     0.10000000E+002                7
 RTBSE| Simulation step         Convergence     Electron number  ETRS Iterations
 RTBSE|            4107     0.93937798E-007     0.10000000E+002                6
 RTBSE| Simulation step         Convergence     Electron number  ETRS Iterations
 RTBSE|            4108     0.82142531E-007     0.10000000E+002                6
 RTBSE| Simulation step         Convergence     Electron number  ETRS Iterations
 RTBSE|            4109     0.66983571E-007     0.10000000E+002                6
 RTBSE| Simulation step         Convergence     Electron number  ETRS Iterations
 RTBSE|            4110     0.49660667E-007     0.10000000E+002                6
 RTBSE| Simulation step         Convergence     Electron number  ETRS Iterations
 RTBSE|            4111     0.31621344E-007     0.10000000E+002                6
 RTBSE| Simulation step         Convergence     Electron number  ETRS Iterations
 RTBSE|            4112     0.28687066E-007     0.10000000E+002                6
 RTBSE| Simulation step         Convergence     Electron number  ETRS Iterations
 RTBSE|            4113     0.38847021E-007     0.10000000E+002                6
 RTBSE| Simulation step         Convergence     Electron number  ETRS Iterations
 RTBSE|            4114     0.46962057E-007     0.10000000E+002                6
 RTBSE| Simulation step         Convergence     Electron number  ETRS Iterations
 RTBSE|            4115     0.52356397E-007     0.10000000E+002                6
 RTBSE| Simulation step         Convergence     Electron number  ETRS Iterations
 RTBSE|            4116     0.55363491E-007     0.10000000E+002                6
 RTBSE| Simulation step         Convergence     Electron number  ETRS Iterations
 RTBSE|            4117     0.56973293E-007     0.10000000E+002                6
 RTBSE| Simulation step         Convergence     Electron number  ETRS Iterations
 RTBSE|            4118     0.58499827E-007     0.10000000E+002                6
 RTBSE| Simulation step         Convergence     Electron number  ETRS Iterations
 RTBSE|            4119     0.61299932E-007     0.10000000E+002                6
 RTBSE| Simulation step         Convergence     Electron number  ETRS Iterations
 RTBSE|            4120     0.66538500E-007     0.10000000E+002                6
 RTBSE| Simulation step         Convergence     Electron number  ETRS Iterations
 RTBSE|            4121     0.74901364E-007     0.10000000E+002                6
 RTBSE| Simulation step         Convergence     Electron number  ETRS Iterations
 RTBSE|            4122     0.86413720E-007     0.10000000E+002                6
 RTBSE| Simulation step         Convergence     Electron number  ETRS Iterations
 RTBSE|            4123     0.17969291E-007     0.10000000E+002                7
 RTBSE| Simulation step         Convergence     Electron number  ETRS Iterations
 RTBSE|            4124     0.21051744E-007     0.10000000E+002                7
 RTBSE| Simulation step         Convergence     Electron number  ETRS Iterations
 RTBSE|            4125     0.24137693E-007     0.10000000E+002                7
 RTBSE| Simulation step         Convergence     Electron number  ETRS Iterations
 RTBSE|            4126     0.26840381E-007     0.10000000E+002                7
 RTBSE| Simulation step         Convergence     Electron number  ETRS Iterations
 RTBSE|            4127     0.28734259E-007     0.10000000E+002                7
 RTBSE| Simulation step         Convergence     Electron number  ETRS Iterations
 RTBSE|            4128     0.29539720E-007     0.10000000E+002                7
 RTBSE| Simulation step         Convergence     Electron number  ETRS Iterations
 RTBSE|            4129     0.29064407E-007     0.10000000E+002                7
 RTBSE| Simulation step         Convergence     Electron number  ETRS Iterations
 RTBSE|            4130     0.27277966E-007     0.10000000E+002                7
 RTBSE| Simulation step         Convergence     Electron number  ETRS Iterations
 RTBSE|            4131     0.24312176E-007     0.10000000E+002                7
 RTBSE| Simulation step         Convergence     Electron number  ETRS Iterations
 RTBSE|            4132     0.20411187E-007     0.10000000E+002                7
 RTBSE| Simulation step         Convergence     Electron number  ETRS Iterations
 RTBSE|            4133     0.15894601E-007     0.10000000E+002                7
 RTBSE| Simulation step         Convergence     Electron number  ETRS Iterations
 RTBSE|            4134     0.97009487E-007     0.10000000E+002                6
 RTBSE| Simulation step         Convergence     Electron number  ETRS Iterations
 RTBSE|            4135     0.73124471E-007     0.10000000E+002                6
 RTBSE| Simulation step         Convergence     Electron number  ETRS Iterations
 RTBSE|            4136     0.49293663E-007     0.10000000E+002                6
 RTBSE| Simulation step         Convergence     Electron number  ETRS Iterations
 RTBSE|            4137     0.27128112E-007     0.10000000E+002                6
 RTBSE| Simulation step         Convergence     Electron number  ETRS Iterations
 RTBSE|            4138     0.32813256E-007     0.10000000E+002                6
 RTBSE| Simulation step         Convergence     Electron number  ETRS Iterations
 RTBSE|            4139     0.42275698E-007     0.10000000E+002                6
 RTBSE| Simulation step         Convergence     Electron number  ETRS Iterations
 RTBSE|            4140     0.48326398E-007     0.10000000E+002                6
 RTBSE| Simulation step         Convergence     Electron number  ETRS Iterations
 RTBSE|            4141     0.50977696E-007     0.10000000E+002                6
 RTBSE| Simulation step         Convergence     Electron number  ETRS Iterations
 RTBSE|            4142     0.50944875E-007     0.10000000E+002                6
 RTBSE| Simulation step         Convergence     Electron number  ETRS Iterations
 RTBSE|            4143     0.49418356E-007     0.10000000E+002                6
 RTBSE| Simulation step         Convergence     Electron number  ETRS Iterations
 RTBSE|            4144     0.47542542E-007     0.10000000E+002                6
 RTBSE| Simulation step         Convergence     Electron number  ETRS Iterations
 RTBSE|            4145     0.46529515E-007     0.10000000E+002                6
 RTBSE| Simulation step         Convergence     Electron number  ETRS Iterations
 RTBSE|            4146     0.47201432E-007     0.10000000E+002                6
 RTBSE| Simulation step         Convergence     Electron number  ETRS Iterations
 RTBSE|            4147     0.50170855E-007     0.10000000E+002                6
 RTBSE| Simulation step         Convergence     Electron number  ETRS Iterations
 RTBSE|            4148     0.55471012E-007     0.10000000E+002                6
 RTBSE| Simulation step         Convergence     Electron number  ETRS Iterations
 RTBSE|            4149     0.62878908E-007     0.10000000E+002                6
 RTBSE| Simulation step         Convergence     Electron number  ETRS Iterations
 RTBSE|            4150     0.71659715E-007     0.10000000E+002                6
 RTBSE| Simulation step         Convergence     Electron number  ETRS Iterations
 RTBSE|            4151     0.80839200E-007     0.10000000E+002                6
 RTBSE| Simulation step         Convergence     Electron number  ETRS Iterations
 RTBSE|            4152     0.89337175E-007     0.10000000E+002                6
 RTBSE| Simulation step         Convergence     Electron number  ETRS Iterations
 RTBSE|            4153     0.95906947E-007     0.10000000E+002                6
 RTBSE| Simulation step         Convergence     Electron number  ETRS Iterations
 RTBSE|            4154     0.99562315E-007     0.10000000E+002                6
 RTBSE| Simulation step         Convergence     Electron number  ETRS Iterations
 RTBSE|            4155     0.17792036E-007     0.10000000E+002                7
 RTBSE| Simulation step         Convergence     Electron number  ETRS Iterations
 RTBSE|            4156     0.17249660E-007     0.10000000E+002                7
 RTBSE| Simulation step         Convergence     Electron number  ETRS Iterations
 RTBSE|            4157     0.15903550E-007     0.10000000E+002                7
 RTBSE| Simulation step         Convergence     Electron number  ETRS Iterations
 RTBSE|            4158     0.97732310E-007     0.10000000E+002                6
 RTBSE| Simulation step         Convergence     Electron number  ETRS Iterations
 RTBSE|            4159     0.87325837E-007     0.10000000E+002                6
 RTBSE| Simulation step         Convergence     Electron number  ETRS Iterations
 RTBSE|            4160     0.73365484E-007     0.10000000E+002                6
 RTBSE| Simulation step         Convergence     Electron number  ETRS Iterations
 RTBSE|            4161     0.56970908E-007     0.10000000E+002                6
 RTBSE| Simulation step         Convergence     Electron number  ETRS Iterations
 RTBSE|            4162     0.39531973E-007     0.10000000E+002                6
 RTBSE| Simulation step         Convergence     Electron number  ETRS Iterations
 RTBSE|            4163     0.23489829E-007     0.10000000E+002                6
 RTBSE| Simulation step         Convergence     Electron number  ETRS Iterations
 RTBSE|            4164     0.32939659E-007     0.10000000E+002                6
 RTBSE| Simulation step         Convergence     Electron number  ETRS Iterations
 RTBSE|            4165     0.41349835E-007     0.10000000E+002                6
 RTBSE| Simulation step         Convergence     Electron number  ETRS Iterations
 RTBSE|            4166     0.47452579E-007     0.10000000E+002                6
 RTBSE| Simulation step         Convergence     Electron number  ETRS Iterations
 RTBSE|            4167     0.51423796E-007     0.10000000E+002                6
 RTBSE| Simulation step         Convergence     Electron number  ETRS Iterations
 RTBSE|            4168     0.54076691E-007     0.10000000E+002                6
 RTBSE| Simulation step         Convergence     Electron number  ETRS Iterations
 RTBSE|            4169     0.56601236E-007     0.10000000E+002                6
 RTBSE| Simulation step         Convergence     Electron number  ETRS Iterations
 RTBSE|            4170     0.60295346E-007     0.10000000E+002                6
 RTBSE| Simulation step         Convergence     Electron number  ETRS Iterations
 RTBSE|            4171     0.66373493E-007     0.10000000E+002                6
 RTBSE| Simulation step         Convergence     Electron number  ETRS Iterations
 RTBSE|            4172     0.75442974E-007     0.10000000E+002                6
 RTBSE| Simulation step         Convergence     Electron number  ETRS Iterations
 RTBSE|            4173     0.87616477E-007     0.10000000E+002                6
 RTBSE| Simulation step         Convergence     Electron number  ETRS Iterations
 RTBSE|            4174     0.18270249E-007     0.10000000E+002                7
 RTBSE| Simulation step         Convergence     Electron number  ETRS Iterations
 RTBSE|            4175     0.21445855E-007     0.10000000E+002                7
 RTBSE| Simulation step         Convergence     Electron number  ETRS Iterations
 RTBSE|            4176     0.24634700E-007     0.10000000E+002                7
 RTBSE| Simulation step         Convergence     Electron number  ETRS Iterations
 RTBSE|            4177     0.27420957E-007     0.10000000E+002                7
 RTBSE| Simulation step         Convergence     Electron number  ETRS Iterations
 RTBSE|            4178     0.29415477E-007     0.10000000E+002                7
 RTBSE| Simulation step         Convergence     Electron number  ETRS Iterations
 RTBSE|            4179     0.30283574E-007     0.10000000E+002                7
 RTBSE| Simulation step         Convergence     Electron number  ETRS Iterations
 RTBSE|            4180     0.29839134E-007     0.10000000E+002                7
 RTBSE| Simulation step         Convergence     Electron number  ETRS Iterations
 RTBSE|            4181     0.28052891E-007     0.10000000E+002                7
 RTBSE| Simulation step         Convergence     Electron number  ETRS Iterations
 RTBSE|            4182     0.25047472E-007     0.10000000E+002                7
 RTBSE| Simulation step         Convergence     Electron number  ETRS Iterations
 RTBSE|            4183     0.21088410E-007     0.10000000E+002                7
 RTBSE| Simulation step         Convergence     Electron number  ETRS Iterations
 RTBSE|            4184     0.16500515E-007     0.10000000E+002                7
 RTBSE| Simulation step         Convergence     Electron number  ETRS Iterations
 RTBSE|            4185     0.99604539E-007     0.10000000E+002                6
 RTBSE| Simulation step         Convergence     Electron number  ETRS Iterations
 RTBSE|            4186     0.75355865E-007     0.10000000E+002                6
 RTBSE| Simulation step         Convergence     Electron number  ETRS Iterations
 RTBSE|            4187     0.51294545E-007     0.10000000E+002                6
 RTBSE| Simulation step         Convergence     Electron number  ETRS Iterations
 RTBSE|            4188     0.29057238E-007     0.10000000E+002                6
 RTBSE| Simulation step         Convergence     Electron number  ETRS Iterations
 RTBSE|            4189     0.30003992E-007     0.10000000E+002                6
 RTBSE| Simulation step         Convergence     Electron number  ETRS Iterations
 RTBSE|            4190     0.38873935E-007     0.10000000E+002                6
 RTBSE| Simulation step         Convergence     Electron number  ETRS Iterations
 RTBSE|            4191     0.44382558E-007     0.10000000E+002                6
 RTBSE| Simulation step         Convergence     Electron number  ETRS Iterations
 RTBSE|            4192     0.46543920E-007     0.10000000E+002                6
 RTBSE| Simulation step         Convergence     Electron number  ETRS Iterations
 RTBSE|            4193     0.46135287E-007     0.10000000E+002                6
 RTBSE| Simulation step         Convergence     Electron number  ETRS Iterations
 RTBSE|            4194     0.44329513E-007     0.10000000E+002                6
 RTBSE| Simulation step         Convergence     Electron number  ETRS Iterations
 RTBSE|            4195     0.42367930E-007     0.10000000E+002                6
 RTBSE| Simulation step         Convergence     Electron number  ETRS Iterations
 RTBSE|            4196     0.41437308E-007     0.10000000E+002                6
 RTBSE| Simulation step         Convergence     Electron number  ETRS Iterations
 RTBSE|            4197     0.42511787E-007     0.10000000E+002                6
 RTBSE| Simulation step         Convergence     Electron number  ETRS Iterations
 RTBSE|            4198     0.46092416E-007     0.10000000E+002                6
 RTBSE| Simulation step         Convergence     Electron number  ETRS Iterations
 RTBSE|            4199     0.52257400E-007     0.10000000E+002                6
 RTBSE| Simulation step         Convergence     Electron number  ETRS Iterations
 RTBSE|            4200     0.60617655E-007     0.10000000E+002                6
 RTBSE| Simulation step         Convergence     Electron number  ETRS Iterations
 RTBSE|            4201     0.70492698E-007     0.10000000E+002                6
 RTBSE| Simulation step         Convergence     Electron number  ETRS Iterations
 RTBSE|            4202     0.80905116E-007     0.10000000E+002                6
 RTBSE| Simulation step         Convergence     Electron number  ETRS Iterations
 RTBSE|            4203     0.90617654E-007     0.10000000E+002                6
 RTBSE| Simulation step         Convergence     Electron number  ETRS Iterations
 RTBSE|            4204     0.98428249E-007     0.10000000E+002                6
 RTBSE| Simulation step         Convergence     Electron number  ETRS Iterations
 RTBSE|            4205     0.18098203E-007     0.10000000E+002                7
 RTBSE| Simulation step         Convergence     Electron number  ETRS Iterations
 RTBSE|            4206     0.18529191E-007     0.10000000E+002                7
 RTBSE| Simulation step         Convergence     Electron number  ETRS Iterations
 RTBSE|            4207     0.18181168E-007     0.10000000E+002                7
 RTBSE| Simulation step         Convergence     Electron number  ETRS Iterations
 RTBSE|            4208     0.16993328E-007     0.10000000E+002                7
 RTBSE| Simulation step         Convergence     Electron number  ETRS Iterations
 RTBSE|            4209     0.14998760E-007     0.10000000E+002                7
 RTBSE| Simulation step         Convergence     Electron number  ETRS Iterations
 RTBSE|            4210     0.93620757E-007     0.10000000E+002                6
 RTBSE| Simulation step         Convergence     Electron number  ETRS Iterations
 RTBSE|            4211     0.80311962E-007     0.10000000E+002                6
 RTBSE| Simulation step         Convergence     Electron number  ETRS Iterations
 RTBSE|            4212     0.64316058E-007     0.10000000E+002                6
 RTBSE| Simulation step         Convergence     Electron number  ETRS Iterations
 RTBSE|            4213     0.46980365E-007     0.10000000E+002                6
 RTBSE| Simulation step         Convergence     Electron number  ETRS Iterations
 RTBSE|            4214     0.29699038E-007     0.10000000E+002                6
 RTBSE| Simulation step         Convergence     Electron number  ETRS Iterations
 RTBSE|            4215     0.29004920E-007     0.10000000E+002                6
 RTBSE| Simulation step         Convergence     Electron number  ETRS Iterations
 RTBSE|            4216     0.37754898E-007     0.10000000E+002                6
 RTBSE| Simulation step         Convergence     Electron number  ETRS Iterations
 RTBSE|            4217     0.44603608E-007     0.10000000E+002                6
 RTBSE| Simulation step         Convergence     Electron number  ETRS Iterations
 RTBSE|            4218     0.49403804E-007     0.10000000E+002                6
 RTBSE| Simulation step         Convergence     Electron number  ETRS Iterations
 RTBSE|            4219     0.52897166E-007     0.10000000E+002                6
 RTBSE| Simulation step         Convergence     Electron number  ETRS Iterations
 RTBSE|            4220     0.56132834E-007     0.10000000E+002                6
 RTBSE| Simulation step         Convergence     Electron number  ETRS Iterations
 RTBSE|            4221     0.60486243E-007     0.10000000E+002                6
 RTBSE| Simulation step         Convergence     Electron number  ETRS Iterations
 RTBSE|            4222     0.66965763E-007     0.10000000E+002                6
 RTBSE| Simulation step         Convergence     Electron number  ETRS Iterations
 RTBSE|            4223     0.76368859E-007     0.10000000E+002                6
 RTBSE| Simulation step         Convergence     Electron number  ETRS Iterations
 RTBSE|            4224     0.88763093E-007     0.10000000E+002                6
 RTBSE| Simulation step         Convergence     Electron number  ETRS Iterations
 RTBSE|            4225     0.18503968E-007     0.10000000E+002                7
 RTBSE| Simulation step         Convergence     Electron number  ETRS Iterations
 RTBSE|            4226     0.21717067E-007     0.10000000E+002                7
 RTBSE| Simulation step         Convergence     Electron number  ETRS Iterations
 RTBSE|            4227     0.24912330E-007     0.10000000E+002                7
 RTBSE| Simulation step         Convergence     Electron number  ETRS Iterations
 RTBSE|            4228     0.27710615E-007     0.10000000E+002                7
 RTBSE| Simulation step         Convergence     Electron number  ETRS Iterations
 RTBSE|            4229     0.29709915E-007     0.10000000E+002                7
 RTBSE| Simulation step         Convergence     Electron number  ETRS Iterations
 RTBSE|            4230     0.30586027E-007     0.10000000E+002                7
 RTBSE| Simulation step         Convergence     Electron number  ETRS Iterations
 RTBSE|            4231     0.30155756E-007     0.10000000E+002                7
 RTBSE| Simulation step         Convergence     Electron number  ETRS Iterations
 RTBSE|            4232     0.28388638E-007     0.10000000E+002                7
 RTBSE| Simulation step         Convergence     Electron number  ETRS Iterations
 RTBSE|            4233     0.25417472E-007     0.10000000E+002                7
 RTBSE| Simulation step         Convergence     Electron number  ETRS Iterations
 RTBSE|            4234     0.21512028E-007     0.10000000E+002                7
 RTBSE| Simulation step         Convergence     Electron number  ETRS Iterations
 RTBSE|            4235     0.17001763E-007     0.10000000E+002                7
 RTBSE| Simulation step         Convergence     Electron number  ETRS Iterations
 RTBSE|            4236     0.12359277E-007     0.10000000E+002                7
 RTBSE| Simulation step         Convergence     Electron number  ETRS Iterations
 RTBSE|            4237     0.77925234E-007     0.10000000E+002                6
 RTBSE| Simulation step         Convergence     Electron number  ETRS Iterations
 RTBSE|            4238     0.54667279E-007     0.10000000E+002                6
 RTBSE| Simulation step         Convergence     Electron number  ETRS Iterations
 RTBSE|            4239     0.33301267E-007     0.10000000E+002                6
 RTBSE| Simulation step         Convergence     Electron number  ETRS Iterations
 RTBSE|            4240     0.24800750E-007     0.10000000E+002                6
 RTBSE| Simulation step         Convergence     Electron number  ETRS Iterations
 RTBSE|            4241     0.32798865E-007     0.10000000E+002                6
 RTBSE| Simulation step         Convergence     Electron number  ETRS Iterations
 RTBSE|            4242     0.38041193E-007     0.10000000E+002                6
 RTBSE| Simulation step         Convergence     Electron number  ETRS Iterations
 RTBSE|            4243     0.40250026E-007     0.10000000E+002                6
 RTBSE| Simulation step         Convergence     Electron number  ETRS Iterations
 RTBSE|            4244     0.40176212E-007     0.10000000E+002                6
 RTBSE| Simulation step         Convergence     Electron number  ETRS Iterations
 RTBSE|            4245     0.38971205E-007     0.10000000E+002                6
 RTBSE| Simulation step         Convergence     Electron number  ETRS Iterations
 RTBSE|            4246     0.37858705E-007     0.10000000E+002                6
 RTBSE| Simulation step         Convergence     Electron number  ETRS Iterations
 RTBSE|            4247     0.37973368E-007     0.10000000E+002                6
 RTBSE| Simulation step         Convergence     Electron number  ETRS Iterations
 RTBSE|            4248     0.40154713E-007     0.10000000E+002                6
 RTBSE| Simulation step         Convergence     Electron number  ETRS Iterations
 RTBSE|            4249     0.44844121E-007     0.10000000E+002                6
 RTBSE| Simulation step         Convergence     Electron number  ETRS Iterations
 RTBSE|            4250     0.52019557E-007     0.10000000E+002                6
 RTBSE| Simulation step         Convergence     Electron number  ETRS Iterations
 RTBSE|            4251     0.61349990E-007     0.10000000E+002                6
 RTBSE| Simulation step         Convergence     Electron number  ETRS Iterations
 RTBSE|            4252     0.72127191E-007     0.10000000E+002                6
 RTBSE| Simulation step         Convergence     Electron number  ETRS Iterations
 RTBSE|            4253     0.83269206E-007     0.10000000E+002                6
 RTBSE| Simulation step         Convergence     Electron number  ETRS Iterations
 RTBSE|            4254     0.93614431E-007     0.10000000E+002                6
 RTBSE| Simulation step         Convergence     Electron number  ETRS Iterations
 RTBSE|            4255     0.17543881E-007     0.10000000E+002                7
 RTBSE| Simulation step         Convergence     Electron number  ETRS Iterations
 RTBSE|            4256     0.18696973E-007     0.10000000E+002                7
 RTBSE| Simulation step         Convergence     Electron number  ETRS Iterations
 RTBSE|            4257     0.19191810E-007     0.10000000E+002                7
 RTBSE| Simulation step         Convergence     Electron number  ETRS Iterations
 RTBSE|            4258     0.18911745E-007     0.10000000E+002                7
 RTBSE| Simulation step         Convergence     Electron number  ETRS Iterations
 RTBSE|            4259     0.17781015E-007     0.10000000E+002                7
 RTBSE| Simulation step         Convergence     Electron number  ETRS Iterations
 RTBSE|            4260     0.15832061E-007     0.10000000E+002                7
 RTBSE| Simulation step         Convergence     Electron number  ETRS Iterations
 RTBSE|            4261     0.97783165E-007     0.10000000E+002                6
 RTBSE| Simulation step         Convergence     Electron number  ETRS Iterations
 RTBSE|            4262     0.84672158E-007     0.10000000E+002                6
 RTBSE| Simulation step         Convergence     Electron number  ETRS Iterations
 RTBSE|            4263     0.68781959E-007     0.10000000E+002                6
 RTBSE| Simulation step         Convergence     Electron number  ETRS Iterations
 RTBSE|            4264     0.51401937E-007     0.10000000E+002                6
 RTBSE| Simulation step         Convergence     Electron number  ETRS Iterations
 RTBSE|            4265     0.33957633E-007     0.10000000E+002                6
 RTBSE| Simulation step         Convergence     Electron number  ETRS Iterations
 RTBSE|            4266     0.26552307E-007     0.10000000E+002                6
 RTBSE| Simulation step         Convergence     Electron number  ETRS Iterations
 RTBSE|            4267     0.35247050E-007     0.10000000E+002                6
 RTBSE| Simulation step         Convergence     Electron number  ETRS Iterations
 RTBSE|            4268     0.42393301E-007     0.10000000E+002                6
 RTBSE| Simulation step         Convergence     Electron number  ETRS Iterations
 RTBSE|            4269     0.47625379E-007     0.10000000E+002                6
 RTBSE| Simulation step         Convergence     Electron number  ETRS Iterations
 RTBSE|            4270     0.51529340E-007     0.10000000E+002                6
 RTBSE| Simulation step         Convergence     Electron number  ETRS Iterations
 RTBSE|            4271     0.55151113E-007     0.10000000E+002                6
 RTBSE| Simulation step         Convergence     Electron number  ETRS Iterations
 RTBSE|            4272     0.59774636E-007     0.10000000E+002                6
 RTBSE| Simulation step         Convergence     Electron number  ETRS Iterations
 RTBSE|            4273     0.66459150E-007     0.10000000E+002                6
 RTBSE| Simulation step         Convergence     Electron number  ETRS Iterations
 RTBSE|            4274     0.75968266E-007     0.10000000E+002                6
 RTBSE| Simulation step         Convergence     Electron number  ETRS Iterations
 RTBSE|            4275     0.88387839E-007     0.10000000E+002                6
 RTBSE| Simulation step         Convergence     Electron number  ETRS Iterations
 RTBSE|            4276     0.18393687E-007     0.10000000E+002                7
 RTBSE| Simulation step         Convergence     Electron number  ETRS Iterations
 RTBSE|            4277     0.21532101E-007     0.10000000E+002                7
 RTBSE| Simulation step         Convergence     Electron number  ETRS Iterations
 RTBSE|            4278     0.24681196E-007     0.10000000E+002                7
 RTBSE| Simulation step         Convergence     Electron number  ETRS Iterations
 RTBSE|            4279     0.27440101E-007     0.10000000E+002                7
 RTBSE| Simulation step         Convergence     Electron number  ETRS Iterations
 RTBSE|            4280     0.29446259E-007     0.10000000E+002                7
 RTBSE| Simulation step         Convergence     Electron number  ETRS Iterations
 RTBSE|            4281     0.30367015E-007     0.10000000E+002                7
 RTBSE| Simulation step         Convergence     Electron number  ETRS Iterations
 RTBSE|            4282     0.30036607E-007     0.10000000E+002                7
 RTBSE| Simulation step         Convergence     Electron number  ETRS Iterations
 RTBSE|            4283     0.28433285E-007     0.10000000E+002                7
 RTBSE| Simulation step         Convergence     Electron number  ETRS Iterations
 RTBSE|            4284     0.25674229E-007     0.10000000E+002                7
 RTBSE| Simulation step         Convergence     Electron number  ETRS Iterations
 RTBSE|            4285     0.22005900E-007     0.10000000E+002                7
 RTBSE| Simulation step         Convergence     Electron number  ETRS Iterations
 RTBSE|            4286     0.17735529E-007     0.10000000E+002                7
 RTBSE| Simulation step         Convergence     Electron number  ETRS Iterations
 RTBSE|            4287     0.13201671E-007     0.10000000E+002                7
 RTBSE| Simulation step         Convergence     Electron number  ETRS Iterations
 RTBSE|            4288     0.82579161E-007     0.10000000E+002                6
 RTBSE| Simulation step         Convergence     Electron number  ETRS Iterations
 RTBSE|            4289     0.60489070E-007     0.10000000E+002                6
 RTBSE| Simulation step         Convergence     Electron number  ETRS Iterations
 RTBSE|            4290     0.40070577E-007     0.10000000E+002                6
 RTBSE| Simulation step         Convergence     Electron number  ETRS Iterations
 RTBSE|            4291     0.22508789E-007     0.10000000E+002                6
 RTBSE| Simulation step         Convergence     Electron number  ETRS Iterations
 RTBSE|            4292     0.26044907E-007     0.10000000E+002                6
 RTBSE| Simulation step         Convergence     Electron number  ETRS Iterations
 RTBSE|            4293     0.31287366E-007     0.10000000E+002                6
 RTBSE| Simulation step         Convergence     Electron number  ETRS Iterations
 RTBSE|            4294     0.34088574E-007     0.10000000E+002                6
 RTBSE| Simulation step         Convergence     Electron number  ETRS Iterations
 RTBSE|            4295     0.34951721E-007     0.10000000E+002                6
 RTBSE| Simulation step         Convergence     Electron number  ETRS Iterations
 RTBSE|            4296     0.34882732E-007     0.10000000E+002                6
 RTBSE| Simulation step         Convergence     Electron number  ETRS Iterations
 RTBSE|            4297     0.35025245E-007     0.10000000E+002                6
 RTBSE| Simulation step         Convergence     Electron number  ETRS Iterations
 RTBSE|            4298     0.36377847E-007     0.10000000E+002                6
 RTBSE| Simulation step         Convergence     Electron number  ETRS Iterations
 RTBSE|            4299     0.39694704E-007     0.10000000E+002                6
 RTBSE| Simulation step         Convergence     Electron number  ETRS Iterations
 RTBSE|            4300     0.45387177E-007     0.10000000E+002                6
 RTBSE| Simulation step         Convergence     Electron number  ETRS Iterations
 RTBSE|            4301     0.53393456E-007     0.10000000E+002                6
 RTBSE| Simulation step         Convergence     Electron number  ETRS Iterations
 RTBSE|            4302     0.63333954E-007     0.10000000E+002                6
 RTBSE| Simulation step         Convergence     Electron number  ETRS Iterations
 RTBSE|            4303     0.74431470E-007     0.10000000E+002                6
 RTBSE| Simulation step         Convergence     Electron number  ETRS Iterations
 RTBSE|            4304     0.85729436E-007     0.10000000E+002                6
 RTBSE| Simulation step         Convergence     Electron number  ETRS Iterations
 RTBSE|            4305     0.96090159E-007     0.10000000E+002                6
 RTBSE| Simulation step         Convergence     Electron number  ETRS Iterations
 RTBSE|            4306     0.17913495E-007     0.10000000E+002                7
 RTBSE| Simulation step         Convergence     Electron number  ETRS Iterations
 RTBSE|            4307     0.19050716E-007     0.10000000E+002                7
 RTBSE| Simulation step         Convergence     Electron number  ETRS Iterations
 RTBSE|            4308     0.19532205E-007     0.10000000E+002                7
 RTBSE| Simulation step         Convergence     Electron number  ETRS Iterations
 RTBSE|            4309     0.19229638E-007     0.10000000E+002                7
 RTBSE| Simulation step         Convergence     Electron number  ETRS Iterations
 RTBSE|            4310     0.18101487E-007     0.10000000E+002                7
 RTBSE| Simulation step         Convergence     Electron number  ETRS Iterations
 RTBSE|            4311     0.16178663E-007     0.10000000E+002                7
 RTBSE| Simulation step         Convergence     Electron number  ETRS Iterations
 RTBSE|            4312     0.99001747E-007     0.10000000E+002                6
 RTBSE| Simulation step         Convergence     Electron number  ETRS Iterations
 RTBSE|            4313     0.86158848E-007     0.10000000E+002                6
 RTBSE| Simulation step         Convergence     Electron number  ETRS Iterations
 RTBSE|            4314     0.70632538E-007     0.10000000E+002                6
 RTBSE| Simulation step         Convergence     Electron number  ETRS Iterations
 RTBSE|            4315     0.53720064E-007     0.10000000E+002                6
 RTBSE| Simulation step         Convergence     Electron number  ETRS Iterations
 RTBSE|            4316     0.36830808E-007     0.10000000E+002                6
 RTBSE| Simulation step         Convergence     Electron number  ETRS Iterations
 RTBSE|            4317     0.23514082E-007     0.10000000E+002                6
 RTBSE| Simulation step         Convergence     Electron number  ETRS Iterations
 RTBSE|            4318     0.31445448E-007     0.10000000E+002                6
 RTBSE| Simulation step         Convergence     Electron number  ETRS Iterations
 RTBSE|            4319     0.38280531E-007     0.10000000E+002                6
 RTBSE| Simulation step         Convergence     Electron number  ETRS Iterations
 RTBSE|            4320     0.43457958E-007     0.10000000E+002                6
 RTBSE| Simulation step         Convergence     Electron number  ETRS Iterations
 RTBSE|            4321     0.47474930E-007     0.10000000E+002                6
 RTBSE| Simulation step         Convergence     Electron number  ETRS Iterations
 RTBSE|            4322     0.51356035E-007     0.10000000E+002                6
 RTBSE| Simulation step         Convergence     Electron number  ETRS Iterations
 RTBSE|            4323     0.56316852E-007     0.10000000E+002                6
 RTBSE| Simulation step         Convergence     Electron number  ETRS Iterations
 RTBSE|            4324     0.63315791E-007     0.10000000E+002                6
 RTBSE| Simulation step         Convergence     Electron number  ETRS Iterations
 RTBSE|            4325     0.73068412E-007     0.10000000E+002                6
 RTBSE| Simulation step         Convergence     Electron number  ETRS Iterations
 RTBSE|            4326     0.85695085E-007     0.10000000E+002                6
 RTBSE| Simulation step         Convergence     Electron number  ETRS Iterations
 RTBSE|            4327     0.17866900E-007     0.10000000E+002                7
 RTBSE| Simulation step         Convergence     Electron number  ETRS Iterations
 RTBSE|            4328     0.21063230E-007     0.10000000E+002                7
 RTBSE| Simulation step         Convergence     Electron number  ETRS Iterations
 RTBSE|            4329     0.24288485E-007     0.10000000E+002                7
 RTBSE| Simulation step         Convergence     Electron number  ETRS Iterations
 RTBSE|            4330     0.27160169E-007     0.10000000E+002                7
 RTBSE| Simulation step         Convergence     Electron number  ETRS Iterations
 RTBSE|            4331     0.29323043E-007     0.10000000E+002                7
 RTBSE| Simulation step         Convergence     Electron number  ETRS Iterations
 RTBSE|            4332     0.30469687E-007     0.10000000E+002                7
 RTBSE| Simulation step         Convergence     Electron number  ETRS Iterations
 RTBSE|            4333     0.30405479E-007     0.10000000E+002                7
 RTBSE| Simulation step         Convergence     Electron number  ETRS Iterations
 RTBSE|            4334     0.29079068E-007     0.10000000E+002                7
 RTBSE| Simulation step         Convergence     Electron number  ETRS Iterations
 RTBSE|            4335     0.26589197E-007     0.10000000E+002                7
 RTBSE| Simulation step         Convergence     Electron number  ETRS Iterations
 RTBSE|            4336     0.23128338E-007     0.10000000E+002                7
 RTBSE| Simulation step         Convergence     Electron number  ETRS Iterations
 RTBSE|            4337     0.19032928E-007     0.10000000E+002                7
 RTBSE| Simulation step         Convergence     Electron number  ETRS Iterations
 RTBSE|            4338     0.14611819E-007     0.10000000E+002                7
 RTBSE| Simulation step         Convergence     Electron number  ETRS Iterations
 RTBSE|            4339     0.89858992E-007     0.10000000E+002                6
 RTBSE| Simulation step         Convergence     Electron number  ETRS Iterations
 RTBSE|            4340     0.68155149E-007     0.10000000E+002                6
 RTBSE| Simulation step         Convergence     Electron number  ETRS Iterations
 RTBSE|            4341     0.47789244E-007     0.10000000E+002                6
 RTBSE| Simulation step         Convergence     Electron number  ETRS Iterations
 RTBSE|            4342     0.30010203E-007     0.10000000E+002                6
 RTBSE| Simulation step         Convergence     Electron number  ETRS Iterations
 RTBSE|            4343     0.21338289E-007     0.10000000E+002                6
 RTBSE| Simulation step         Convergence     Electron number  ETRS Iterations
 RTBSE|            4344     0.26770318E-007     0.10000000E+002                6
 RTBSE| Simulation step         Convergence     Electron number  ETRS Iterations
 RTBSE|            4345     0.30299667E-007     0.10000000E+002                6
 RTBSE| Simulation step         Convergence     Electron number  ETRS Iterations
 RTBSE|            4346     0.32113738E-007     0.10000000E+002                6
 RTBSE| Simulation step         Convergence     Electron number  ETRS Iterations
 RTBSE|            4347     0.33078913E-007     0.10000000E+002                6
 RTBSE| Simulation step         Convergence     Electron number  ETRS Iterations
 RTBSE|            4348     0.34215338E-007     0.10000000E+002                6
 RTBSE| Simulation step         Convergence     Electron number  ETRS Iterations
 RTBSE|            4349     0.36430377E-007     0.10000000E+002                6
 RTBSE| Simulation step         Convergence     Electron number  ETRS Iterations
 RTBSE|            4350     0.40484959E-007     0.10000000E+002                6
 RTBSE| Simulation step         Convergence     Electron number  ETRS Iterations
 RTBSE|            4351     0.46646961E-007     0.10000000E+002                6
 RTBSE| Simulation step         Convergence     Electron number  ETRS Iterations
 RTBSE|            4352     0.54961975E-007     0.10000000E+002                6
 RTBSE| Simulation step         Convergence     Electron number  ETRS Iterations
 RTBSE|            4353     0.64954207E-007     0.10000000E+002                6
 RTBSE| Simulation step         Convergence     Electron number  ETRS Iterations
 RTBSE|            4354     0.76003781E-007     0.10000000E+002                6
 RTBSE| Simulation step         Convergence     Electron number  ETRS Iterations
 RTBSE|            4355     0.87091828E-007     0.10000000E+002                6
 RTBSE| Simulation step         Convergence     Electron number  ETRS Iterations
 RTBSE|            4356     0.97153753E-007     0.10000000E+002                6
 RTBSE| Simulation step         Convergence     Electron number  ETRS Iterations
 RTBSE|            4357     0.18013122E-007     0.10000000E+002                7
 RTBSE| Simulation step         Convergence     Electron number  ETRS Iterations
 RTBSE|            4358     0.19097690E-007     0.10000000E+002                7
 RTBSE| Simulation step         Convergence     Electron number  ETRS Iterations
 RTBSE|            4359     0.19539924E-007     0.10000000E+002                7
 RTBSE| Simulation step         Convergence     Electron number  ETRS Iterations
 RTBSE|            4360     0.19222411E-007     0.10000000E+002                7
 RTBSE| Simulation step         Convergence     Electron number  ETRS Iterations
 RTBSE|            4361     0.18111865E-007     0.10000000E+002                7
 RTBSE| Simulation step         Convergence     Electron number  ETRS Iterations
 RTBSE|            4362     0.16230675E-007     0.10000000E+002                7
 RTBSE| Simulation step         Convergence     Electron number  ETRS Iterations
 RTBSE|            4363     0.98634672E-007     0.10000000E+002                6
 RTBSE| Simulation step         Convergence     Electron number  ETRS Iterations
 RTBSE|            4364     0.86353321E-007     0.10000000E+002                6
 RTBSE| Simulation step         Convergence     Electron number  ETRS Iterations
 RTBSE|            4365     0.71620007E-007     0.10000000E+002                6
 RTBSE| Simulation step         Convergence     Electron number  ETRS Iterations
 RTBSE|            4366     0.55692460E-007     0.10000000E+002                6
 RTBSE| Simulation step         Convergence     Electron number  ETRS Iterations
 RTBSE|            4367     0.39837046E-007     0.10000000E+002                6
 RTBSE| Simulation step         Convergence     Electron number  ETRS Iterations
 RTBSE|            4368     0.25190981E-007     0.10000000E+002                6
 RTBSE| Simulation step         Convergence     Electron number  ETRS Iterations
 RTBSE|            4369     0.26915733E-007     0.10000000E+002                6
 RTBSE| Simulation step         Convergence     Electron number  ETRS Iterations
 RTBSE|            4370     0.33220318E-007     0.10000000E+002                6
 RTBSE| Simulation step         Convergence     Electron number  ETRS Iterations
 RTBSE|            4371     0.38241684E-007     0.10000000E+002                6
 RTBSE| Simulation step         Convergence     Electron number  ETRS Iterations
 RTBSE|            4372     0.42324106E-007     0.10000000E+002                6
 RTBSE| Simulation step         Convergence     Electron number  ETRS Iterations
 RTBSE|            4373     0.46478535E-007     0.10000000E+002                6
 RTBSE| Simulation step         Convergence     Electron number  ETRS Iterations
 RTBSE|            4374     0.51776388E-007     0.10000000E+002                6
 RTBSE| Simulation step         Convergence     Electron number  ETRS Iterations
 RTBSE|            4375     0.59238089E-007     0.10000000E+002                6
 RTBSE| Simulation step         Convergence     Electron number  ETRS Iterations
 RTBSE|            4376     0.69498241E-007     0.10000000E+002                6
 RTBSE| Simulation step         Convergence     Electron number  ETRS Iterations
 RTBSE|            4377     0.82763299E-007     0.10000000E+002                6
 RTBSE| Simulation step         Convergence     Electron number  ETRS Iterations
 RTBSE|            4378     0.98477240E-007     0.10000000E+002                6
 RTBSE| Simulation step         Convergence     Electron number  ETRS Iterations
 RTBSE|            4379     0.20734184E-007     0.10000000E+002                7
 RTBSE| Simulation step         Convergence     Electron number  ETRS Iterations
 RTBSE|            4380     0.24142992E-007     0.10000000E+002                7
 RTBSE| Simulation step         Convergence     Electron number  ETRS Iterations
 RTBSE|            4381     0.27235892E-007     0.10000000E+002                7
 RTBSE| Simulation step         Convergence     Electron number  ETRS Iterations
 RTBSE|            4382     0.29641057E-007     0.10000000E+002                7
 RTBSE| Simulation step         Convergence     Electron number  ETRS Iterations
 RTBSE|            4383     0.31032302E-007     0.10000000E+002                7
 RTBSE| Simulation step         Convergence     Electron number  ETRS Iterations
 RTBSE|            4384     0.31182236E-007     0.10000000E+002                7
 RTBSE| Simulation step         Convergence     Electron number  ETRS Iterations
 RTBSE|            4385     0.30029314E-007     0.10000000E+002                7
 RTBSE| Simulation step         Convergence     Electron number  ETRS Iterations
 RTBSE|            4386     0.27656614E-007     0.10000000E+002                7
 RTBSE| Simulation step         Convergence     Electron number  ETRS Iterations
 RTBSE|            4387     0.24272411E-007     0.10000000E+002                7
 RTBSE| Simulation step         Convergence     Electron number  ETRS Iterations
 RTBSE|            4388     0.20193747E-007     0.10000000E+002                7
 RTBSE| Simulation step         Convergence     Electron number  ETRS Iterations
 RTBSE|            4389     0.15747025E-007     0.10000000E+002                7
 RTBSE| Simulation step         Convergence     Electron number  ETRS Iterations
 RTBSE|            4390     0.95735910E-007     0.10000000E+002                6
 RTBSE| Simulation step         Convergence     Electron number  ETRS Iterations
 RTBSE|            4391     0.73769393E-007     0.10000000E+002                6
 RTBSE| Simulation step         Convergence     Electron number  ETRS Iterations
 RTBSE|            4392     0.53047247E-007     0.10000000E+002                6
 RTBSE| Simulation step         Convergence     Electron number  ETRS Iterations
 RTBSE|            4393     0.34837144E-007     0.10000000E+002                6
 RTBSE| Simulation step         Convergence     Electron number  ETRS Iterations
 RTBSE|            4394     0.19906753E-007     0.10000000E+002                6
 RTBSE| Simulation step         Convergence     Electron number  ETRS Iterations
 RTBSE|            4395     0.24208682E-007     0.10000000E+002                6
 RTBSE| Simulation step         Convergence     Electron number  ETRS Iterations
 RTBSE|            4396     0.28105798E-007     0.10000000E+002                6
 RTBSE| Simulation step         Convergence     Electron number  ETRS Iterations
 RTBSE|            4397     0.30428469E-007     0.10000000E+002                6
 RTBSE| Simulation step         Convergence     Electron number  ETRS Iterations
 RTBSE|            4398     0.31897722E-007     0.10000000E+002                6
 RTBSE| Simulation step         Convergence     Electron number  ETRS Iterations
 RTBSE|            4399     0.33461991E-007     0.10000000E+002                6
 RTBSE| Simulation step         Convergence     Electron number  ETRS Iterations
 RTBSE|            4400     0.36027013E-007     0.10000000E+002                6
 RTBSE| Simulation step         Convergence     Electron number  ETRS Iterations
 RTBSE|            4401     0.40307045E-007     0.10000000E+002                6
 RTBSE| Simulation step         Convergence     Electron number  ETRS Iterations
 RTBSE|            4402     0.46601326E-007     0.10000000E+002                6
 RTBSE| Simulation step         Convergence     Electron number  ETRS Iterations
 RTBSE|            4403     0.54926436E-007     0.10000000E+002                6
 RTBSE| Simulation step         Convergence     Electron number  ETRS Iterations
 RTBSE|            4404     0.64842901E-007     0.10000000E+002                6
 RTBSE| Simulation step         Convergence     Electron number  ETRS Iterations
 RTBSE|            4405     0.75675252E-007     0.10000000E+002                6
 RTBSE| Simulation step         Convergence     Electron number  ETRS Iterations
 RTBSE|            4406     0.86526141E-007     0.10000000E+002                6
 RTBSE| Simulation step         Convergence     Electron number  ETRS Iterations
 RTBSE|            4407     0.96294506E-007     0.10000000E+002                6
 RTBSE| Simulation step         Convergence     Electron number  ETRS Iterations
 RTBSE|            4408     0.17798141E-007     0.10000000E+002                7
 RTBSE| Simulation step         Convergence     Electron number  ETRS Iterations
 RTBSE|            4409     0.18858528E-007     0.10000000E+002                7
 RTBSE| Simulation step         Convergence     Electron number  ETRS Iterations
 RTBSE|            4410     0.19291775E-007     0.10000000E+002                7
 RTBSE| Simulation step         Convergence     Electron number  ETRS Iterations
 RTBSE|            4411     0.18994346E-007     0.10000000E+002                7
 RTBSE| Simulation step         Convergence     Electron number  ETRS Iterations
 RTBSE|            4412     0.17937755E-007     0.10000000E+002                7
 RTBSE| Simulation step         Convergence     Electron number  ETRS Iterations
 RTBSE|            4413     0.16172326E-007     0.10000000E+002                7
 RTBSE| Simulation step         Convergence     Electron number  ETRS Iterations
 RTBSE|            4414     0.97540132E-007     0.10000000E+002                6
 RTBSE| Simulation step         Convergence     Electron number  ETRS Iterations
 RTBSE|            4415     0.86165951E-007     0.10000000E+002                6
 RTBSE| Simulation step         Convergence     Electron number  ETRS Iterations
 RTBSE|            4416     0.72495683E-007     0.10000000E+002                6
 RTBSE| Simulation step         Convergence     Electron number  ETRS Iterations
 RTBSE|            4417     0.57684582E-007     0.10000000E+002                6
 RTBSE| Simulation step         Convergence     Electron number  ETRS Iterations
 RTBSE|            4418     0.42981147E-007     0.10000000E+002                6
 RTBSE| Simulation step         Convergence     Electron number  ETRS Iterations
 RTBSE|            4419     0.29477344E-007     0.10000000E+002                6
 RTBSE| Simulation step         Convergence     Electron number  ETRS Iterations
 RTBSE|            4420     0.21936054E-007     0.10000000E+002                6
 RTBSE| Simulation step         Convergence     Electron number  ETRS Iterations
 RTBSE|            4421     0.27271877E-007     0.10000000E+002                6
 RTBSE| Simulation step         Convergence     Electron number  ETRS Iterations
 RTBSE|            4422     0.31789218E-007     0.10000000E+002                6
 RTBSE| Simulation step         Convergence     Electron number  ETRS Iterations
 RTBSE|            4423     0.35756015E-007     0.10000000E+002                6
 RTBSE| Simulation step         Convergence     Electron number  ETRS Iterations
 RTBSE|            4424     0.40064895E-007     0.10000000E+002                6
 RTBSE| Simulation step         Convergence     Electron number  ETRS Iterations
 RTBSE|            4425     0.45800916E-007     0.10000000E+002                6
 RTBSE| Simulation step         Convergence     Electron number  ETRS Iterations
 RTBSE|            4426     0.53967992E-007     0.10000000E+002                6
 RTBSE| Simulation step         Convergence     Electron number  ETRS Iterations
 RTBSE|            4427     0.65197858E-007     0.10000000E+002                6
 RTBSE| Simulation step         Convergence     Electron number  ETRS Iterations
 RTBSE|            4428     0.79604233E-007     0.10000000E+002                6
 RTBSE| Simulation step         Convergence     Electron number  ETRS Iterations
 RTBSE|            4429     0.96677985E-007     0.10000000E+002                6
 RTBSE| Simulation step         Convergence     Electron number  ETRS Iterations
 RTBSE|            4430     0.20559972E-007     0.10000000E+002                7
 RTBSE| Simulation step         Convergence     Electron number  ETRS Iterations
 RTBSE|            4431     0.24231195E-007     0.10000000E+002                7
 RTBSE| Simulation step         Convergence     Electron number  ETRS Iterations
 RTBSE|            4432     0.27573019E-007     0.10000000E+002                7
 RTBSE| Simulation step         Convergence     Electron number  ETRS Iterations
 RTBSE|            4433     0.30166082E-007     0.10000000E+002                7
 RTBSE| Simulation step         Convergence     Electron number  ETRS Iterations
 RTBSE|            4434     0.31701569E-007     0.10000000E+002                7
 RTBSE| Simulation step         Convergence     Electron number  ETRS Iterations
 RTBSE|            4435     0.31944825E-007     0.10000000E+002                7
 RTBSE| Simulation step         Convergence     Electron number  ETRS Iterations
 RTBSE|            4436     0.30848533E-007     0.10000000E+002                7
 RTBSE| Simulation step         Convergence     Electron number  ETRS Iterations
 RTBSE|            4437     0.28498058E-007     0.10000000E+002                7
 RTBSE| Simulation step         Convergence     Electron number  ETRS Iterations
 RTBSE|            4438     0.25103071E-007     0.10000000E+002                7
 RTBSE| Simulation step         Convergence     Electron number  ETRS Iterations
 RTBSE|            4439     0.20990953E-007     0.10000000E+002                7
 RTBSE| Simulation step         Convergence     Electron number  ETRS Iterations
 RTBSE|            4440     0.16525961E-007     0.10000000E+002                7
 RTBSE| Simulation step         Convergence     Electron number  ETRS Iterations
 RTBSE|            4441     0.99415810E-007     0.10000000E+002                6
 RTBSE| Simulation step         Convergence     Electron number  ETRS Iterations
 RTBSE|            4442     0.77353277E-007     0.10000000E+002                6
 RTBSE| Simulation step         Convergence     Electron number  ETRS Iterations
 RTBSE|            4443     0.56534038E-007     0.10000000E+002                6
 RTBSE| Simulation step         Convergence     Electron number  ETRS Iterations
 RTBSE|            4444     0.38199050E-007     0.10000000E+002                6
 RTBSE| Simulation step         Convergence     Electron number  ETRS Iterations
 RTBSE|            4445     0.23169517E-007     0.10000000E+002                6
 RTBSE| Simulation step         Convergence     Electron number  ETRS Iterations
 RTBSE|            4446     0.21246089E-007     0.10000000E+002                6
 RTBSE| Simulation step         Convergence     Electron number  ETRS Iterations
 RTBSE|            4447     0.25029915E-007     0.10000000E+002                6
 RTBSE| Simulation step         Convergence     Electron number  ETRS Iterations
 RTBSE|            4448     0.27399927E-007     0.10000000E+002                6
 RTBSE| Simulation step         Convergence     Electron number  ETRS Iterations
 RTBSE|            4449     0.29013670E-007     0.10000000E+002                6
 RTBSE| Simulation step         Convergence     Electron number  ETRS Iterations
 RTBSE|            4450     0.30805329E-007     0.10000000E+002                6
 RTBSE| Simulation step         Convergence     Electron number  ETRS Iterations
 RTBSE|            4451     0.33636640E-007     0.10000000E+002                6
 RTBSE| Simulation step         Convergence     Electron number  ETRS Iterations
 RTBSE|            4452     0.38140556E-007     0.10000000E+002                6
 RTBSE| Simulation step         Convergence     Electron number  ETRS Iterations
 RTBSE|            4453     0.44683041E-007     0.10000000E+002                6
 RTBSE| Simulation step         Convergence     Electron number  ETRS Iterations
 RTBSE|            4454     0.53190609E-007     0.10000000E+002                6
 RTBSE| Simulation step         Convergence     Electron number  ETRS Iterations
 RTBSE|            4455     0.63290376E-007     0.10000000E+002                6
 RTBSE| Simulation step         Convergence     Electron number  ETRS Iterations
 RTBSE|            4456     0.74244752E-007     0.10000000E+002                6
 RTBSE| Simulation step         Convergence     Electron number  ETRS Iterations
 RTBSE|            4457     0.85173696E-007     0.10000000E+002                6
 RTBSE| Simulation step         Convergence     Electron number  ETRS Iterations
 RTBSE|            4458     0.95040946E-007     0.10000000E+002                6
 RTBSE| Simulation step         Convergence     Electron number  ETRS Iterations
 RTBSE|            4459     0.17558365E-007     0.10000000E+002                7
 RTBSE| Simulation step         Convergence     Electron number  ETRS Iterations
 RTBSE|            4460     0.18640855E-007     0.10000000E+002                7
 RTBSE| Simulation step         Convergence     Electron number  ETRS Iterations
 RTBSE|            4461     0.19111337E-007     0.10000000E+002                7
 RTBSE| Simulation step         Convergence     Electron number  ETRS Iterations
 RTBSE|            4462     0.18884384E-007     0.10000000E+002                7
 RTBSE| Simulation step         Convergence     Electron number  ETRS Iterations
 RTBSE|            4463     0.17940923E-007     0.10000000E+002                7
 RTBSE| Simulation step         Convergence     Electron number  ETRS Iterations
 RTBSE|            4464     0.16296094E-007     0.10000000E+002                7
 RTBSE| Simulation step         Convergence     Electron number  ETRS Iterations
 RTBSE|            4465     0.97379928E-007     0.10000000E+002                6
 RTBSE| Simulation step         Convergence     Electron number  ETRS Iterations
 RTBSE|            4466     0.86955310E-007     0.10000000E+002                6
 RTBSE| Simulation step         Convergence     Electron number  ETRS Iterations
 RTBSE|            4467     0.74431202E-007     0.10000000E+002                6
 RTBSE| Simulation step         Convergence     Electron number  ETRS Iterations
 RTBSE|            4468     0.60979817E-007     0.10000000E+002                6
 RTBSE| Simulation step         Convergence     Electron number  ETRS Iterations
 RTBSE|            4469     0.47721657E-007     0.10000000E+002                6
 RTBSE| Simulation step         Convergence     Electron number  ETRS Iterations
 RTBSE|            4470     0.35645431E-007     0.10000000E+002                6
 RTBSE| Simulation step         Convergence     Electron number  ETRS Iterations
 RTBSE|            4471     0.25419888E-007     0.10000000E+002                6
 RTBSE| Simulation step         Convergence     Electron number  ETRS Iterations
 RTBSE|            4472     0.21115231E-007     0.10000000E+002                6
 RTBSE| Simulation step         Convergence     Electron number  ETRS Iterations
 RTBSE|            4473     0.25240743E-007     0.10000000E+002                6
 RTBSE| Simulation step         Convergence     Electron number  ETRS Iterations
 RTBSE|            4474     0.29505712E-007     0.10000000E+002                6
 RTBSE| Simulation step         Convergence     Electron number  ETRS Iterations
 RTBSE|            4475     0.34568945E-007     0.10000000E+002                6
 RTBSE| Simulation step         Convergence     Electron number  ETRS Iterations
 RTBSE|            4476     0.41493123E-007     0.10000000E+002                6
 RTBSE| Simulation step         Convergence     Electron number  ETRS Iterations
 RTBSE|            4477     0.51053921E-007     0.10000000E+002                6
 RTBSE| Simulation step         Convergence     Electron number  ETRS Iterations
 RTBSE|            4478     0.63795147E-007     0.10000000E+002                6
 RTBSE| Simulation step         Convergence     Electron number  ETRS Iterations
 RTBSE|            4479     0.79650515E-007     0.10000000E+002                6
 RTBSE| Simulation step         Convergence     Electron number  ETRS Iterations
 RTBSE|            4480     0.97990027E-007     0.10000000E+002                6
 RTBSE| Simulation step         Convergence     Electron number  ETRS Iterations
 RTBSE|            4481     0.20930270E-007     0.10000000E+002                7
 RTBSE| Simulation step         Convergence     Electron number  ETRS Iterations
 RTBSE|            4482     0.24724648E-007     0.10000000E+002                7
 RTBSE| Simulation step         Convergence     Electron number  ETRS Iterations
 RTBSE|            4483     0.28096835E-007     0.10000000E+002                7
 RTBSE| Simulation step         Convergence     Electron number  ETRS Iterations
 RTBSE|            4484     0.30687015E-007     0.10000000E+002                7
 RTBSE| Simulation step         Convergence     Electron number  ETRS Iterations
 RTBSE|            4485     0.32161090E-007     0.10000000E+002                7
 RTBSE| Simulation step         Convergence     Electron number  ETRS Iterations
 RTBSE|            4486     0.32345993E-007     0.10000000E+002                7
 RTBSE| Simulation step         Convergence     Electron number  ETRS Iterations
 RTBSE|            4487     0.31193013E-007     0.10000000E+002                7
 RTBSE| Simulation step         Convergence     Electron number  ETRS Iterations
 RTBSE|            4488     0.28818398E-007     0.10000000E+002                7
 RTBSE| Simulation step         Convergence     Electron number  ETRS Iterations
 RTBSE|            4489     0.25425847E-007     0.10000000E+002                7
 RTBSE| Simulation step         Convergence     Electron number  ETRS Iterations
 RTBSE|            4490     0.21360029E-007     0.10000000E+002                7
 RTBSE| Simulation step         Convergence     Electron number  ETRS Iterations
 RTBSE|            4491     0.16955545E-007     0.10000000E+002                7
 RTBSE| Simulation step         Convergence     Electron number  ETRS Iterations
 RTBSE|            4492     0.12552168E-007     0.10000000E+002                7
 RTBSE| Simulation step         Convergence     Electron number  ETRS Iterations
 RTBSE|            4493     0.79515135E-007     0.10000000E+002                6
 RTBSE| Simulation step         Convergence     Electron number  ETRS Iterations
 RTBSE|            4494     0.59184043E-007     0.10000000E+002                6
 RTBSE| Simulation step         Convergence     Electron number  ETRS Iterations
 RTBSE|            4495     0.41383062E-007     0.10000000E+002                6
 RTBSE| Simulation step         Convergence     Electron number  ETRS Iterations
 RTBSE|            4496     0.26890515E-007     0.10000000E+002                6
 RTBSE| Simulation step         Convergence     Electron number  ETRS Iterations
 RTBSE|            4497     0.17404628E-007     0.10000000E+002                6
 RTBSE| Simulation step         Convergence     Electron number  ETRS Iterations
 RTBSE|            4498     0.20643436E-007     0.10000000E+002                6
 RTBSE| Simulation step         Convergence     Electron number  ETRS Iterations
 RTBSE|            4499     0.22963921E-007     0.10000000E+002                6
 RTBSE| Simulation step         Convergence     Electron number  ETRS Iterations
 RTBSE|            4500     0.24822817E-007     0.10000000E+002                6
 RTBSE| Simulation step         Convergence     Electron number  ETRS Iterations
 RTBSE|            4501     0.27011098E-007     0.10000000E+002                6
 RTBSE| Simulation step         Convergence     Electron number  ETRS Iterations
 RTBSE|            4502     0.30383137E-007     0.10000000E+002                6
 RTBSE| Simulation step         Convergence     Electron number  ETRS Iterations
 RTBSE|            4503     0.35487828E-007     0.10000000E+002                6
 RTBSE| Simulation step         Convergence     Electron number  ETRS Iterations
 RTBSE|            4504     0.42615964E-007     0.10000000E+002                6
 RTBSE| Simulation step         Convergence     Electron number  ETRS Iterations
 RTBSE|            4505     0.51675389E-007     0.10000000E+002                6
 RTBSE| Simulation step         Convergence     Electron number  ETRS Iterations
 RTBSE|            4506     0.62191683E-007     0.10000000E+002                6
 RTBSE| Simulation step         Convergence     Electron number  ETRS Iterations
 RTBSE|            4507     0.73463667E-007     0.10000000E+002                6
 RTBSE| Simulation step         Convergence     Electron number  ETRS Iterations
 RTBSE|            4508     0.84579062E-007     0.10000000E+002                6
 RTBSE| Simulation step         Convergence     Electron number  ETRS Iterations
 RTBSE|            4509     0.94550114E-007     0.10000000E+002                6
 RTBSE| Simulation step         Convergence     Electron number  ETRS Iterations
 RTBSE|            4510     0.17437100E-007     0.10000000E+002                7
 RTBSE| Simulation step         Convergence     Electron number  ETRS Iterations
 RTBSE|            4511     0.18526009E-007     0.10000000E+002                7
 RTBSE| Simulation step         Convergence     Electron number  ETRS Iterations
 RTBSE|            4512     0.19001261E-007     0.10000000E+002                7
 RTBSE| Simulation step         Convergence     Electron number  ETRS Iterations
 RTBSE|            4513     0.18809440E-007     0.10000000E+002                7
 RTBSE| Simulation step         Convergence     Electron number  ETRS Iterations
 RTBSE|            4514     0.17928218E-007     0.10000000E+002                7
 RTBSE| Simulation step         Convergence     Electron number  ETRS Iterations
 RTBSE|            4515     0.16400553E-007     0.10000000E+002                7
 RTBSE| Simulation step         Convergence     Electron number  ETRS Iterations
 RTBSE|            4516     0.97007608E-007     0.10000000E+002                6
 RTBSE| Simulation step         Convergence     Electron number  ETRS Iterations
 RTBSE|            4517     0.87662826E-007     0.10000000E+002                6
 RTBSE| Simulation step         Convergence     Electron number  ETRS Iterations
 RTBSE|            4518     0.76513610E-007     0.10000000E+002                6
 RTBSE| Simulation step         Convergence     Electron number  ETRS Iterations
 RTBSE|            4519     0.64570379E-007     0.10000000E+002                6
 RTBSE| Simulation step         Convergence     Electron number  ETRS Iterations
 RTBSE|            4520     0.52827622E-007     0.10000000E+002                6
 RTBSE| Simulation step         Convergence     Electron number  ETRS Iterations
 RTBSE|            4521     0.42116601E-007     0.10000000E+002                6
 RTBSE| Simulation step         Convergence     Electron number  ETRS Iterations
 RTBSE|            4522     0.32988942E-007     0.10000000E+002                6
 RTBSE| Simulation step         Convergence     Electron number  ETRS Iterations
 RTBSE|            4523     0.25537477E-007     0.10000000E+002                6
 RTBSE| Simulation step         Convergence     Electron number  ETRS Iterations
 RTBSE|            4524     0.20611227E-007     0.10000000E+002                6
 RTBSE| Simulation step         Convergence     Electron number  ETRS Iterations
 RTBSE|            4525     0.25199830E-007     0.10000000E+002                6
 RTBSE| Simulation step         Convergence     Electron number  ETRS Iterations
 RTBSE|            4526     0.31215859E-007     0.10000000E+002                6
 RTBSE| Simulation step         Convergence     Electron number  ETRS Iterations
 RTBSE|            4527     0.39253590E-007     0.10000000E+002                6
 RTBSE| Simulation step         Convergence     Electron number  ETRS Iterations
 RTBSE|            4528     0.50004120E-007     0.10000000E+002                6
 RTBSE| Simulation step         Convergence     Electron number  ETRS Iterations
 RTBSE|            4529     0.63832614E-007     0.10000000E+002                6
 RTBSE| Simulation step         Convergence     Electron number  ETRS Iterations
 RTBSE|            4530     0.80581622E-007     0.10000000E+002                6
 RTBSE| Simulation step         Convergence     Electron number  ETRS Iterations
 RTBSE|            4531     0.99441646E-007     0.10000000E+002                6
 RTBSE| Simulation step         Convergence     Electron number  ETRS Iterations
 RTBSE|            4532     0.21234599E-007     0.10000000E+002                7
 RTBSE| Simulation step         Convergence     Electron number  ETRS Iterations
 RTBSE|            4533     0.24983979E-007     0.10000000E+002                7
 RTBSE| Simulation step         Convergence     Electron number  ETRS Iterations
 RTBSE|            4534     0.28259109E-007     0.10000000E+002                7
 RTBSE| Simulation step         Convergence     Electron number  ETRS Iterations
 RTBSE|            4535     0.30735911E-007     0.10000000E+002                7
 RTBSE| Simulation step         Convergence     Electron number  ETRS Iterations
 RTBSE|            4536     0.32086516E-007     0.10000000E+002                7
 RTBSE| Simulation step         Convergence     Electron number  ETRS Iterations
 RTBSE|            4537     0.32189149E-007     0.10000000E+002                7
 RTBSE| Simulation step         Convergence     Electron number  ETRS Iterations
 RTBSE|            4538     0.30988260E-007     0.10000000E+002                7
 RTBSE| Simulation step         Convergence     Electron number  ETRS Iterations
 RTBSE|            4539     0.28616872E-007     0.10000000E+002                7
 RTBSE| Simulation step         Convergence     Electron number  ETRS Iterations
 RTBSE|            4540     0.25293502E-007     0.10000000E+002                7
 RTBSE| Simulation step         Convergence     Electron number  ETRS Iterations
 RTBSE|            4541     0.21340806E-007     0.10000000E+002                7
 RTBSE| Simulation step         Convergence     Electron number  ETRS Iterations
 RTBSE|            4542     0.17084833E-007     0.10000000E+002                7
 RTBSE| Simulation step         Convergence     Electron number  ETRS Iterations
 RTBSE|            4543     0.12873260E-007     0.10000000E+002                7
 RTBSE| Simulation step         Convergence     Electron number  ETRS Iterations
 RTBSE|            4544     0.80504850E-007     0.10000000E+002                6
 RTBSE| Simulation step         Convergence     Electron number  ETRS Iterations
 RTBSE|            4545     0.61357120E-007     0.10000000E+002                6
 RTBSE| Simulation step         Convergence     Electron number  ETRS Iterations
 RTBSE|            4546     0.44769479E-007     0.10000000E+002                6
 RTBSE| Simulation step         Convergence     Electron number  ETRS Iterations
 RTBSE|            4547     0.31370034E-007     0.10000000E+002                6
 RTBSE| Simulation step         Convergence     Electron number  ETRS Iterations
 RTBSE|            4548     0.21292612E-007     0.10000000E+002                6
 RTBSE| Simulation step         Convergence     Electron number  ETRS Iterations
 RTBSE|            4549     0.15188856E-007     0.10000000E+002                6
 RTBSE| Simulation step         Convergence     Electron number  ETRS Iterations
 RTBSE|            4550     0.17202414E-007     0.10000000E+002                6
 RTBSE| Simulation step         Convergence     Electron number  ETRS Iterations
 RTBSE|            4551     0.19263025E-007     0.10000000E+002                6
 RTBSE| Simulation step         Convergence     Electron number  ETRS Iterations
 RTBSE|            4552     0.22077560E-007     0.10000000E+002                6
 RTBSE| Simulation step         Convergence     Electron number  ETRS Iterations
 RTBSE|            4553     0.26222885E-007     0.10000000E+002                6
 RTBSE| Simulation step         Convergence     Electron number  ETRS Iterations
 RTBSE|            4554     0.32196865E-007     0.10000000E+002                6
 RTBSE| Simulation step         Convergence     Electron number  ETRS Iterations
 RTBSE|            4555     0.40156516E-007     0.10000000E+002                6
 RTBSE| Simulation step         Convergence     Electron number  ETRS Iterations
 RTBSE|            4556     0.49937950E-007     0.10000000E+002                6
 RTBSE| Simulation step         Convergence     Electron number  ETRS Iterations
 RTBSE|            4557     0.61073127E-007     0.10000000E+002                6
 RTBSE| Simulation step         Convergence     Electron number  ETRS Iterations
 RTBSE|            4558     0.72771420E-007     0.10000000E+002                6
 RTBSE| Simulation step         Convergence     Electron number  ETRS Iterations
 RTBSE|            4559     0.84140919E-007     0.10000000E+002                6
 RTBSE| Simulation step         Convergence     Electron number  ETRS Iterations
 RTBSE|            4560     0.94185520E-007     0.10000000E+002                6
 RTBSE| Simulation step         Convergence     Electron number  ETRS Iterations
 RTBSE|            4561     0.17326169E-007     0.10000000E+002                7
 RTBSE| Simulation step         Convergence     Electron number  ETRS Iterations
 RTBSE|            4562     0.18405698E-007     0.10000000E+002                7
 RTBSE| Simulation step         Convergence     Electron number  ETRS Iterations
 RTBSE|            4563     0.18914813E-007     0.10000000E+002                7
 RTBSE| Simulation step         Convergence     Electron number  ETRS Iterations
 RTBSE|            4564     0.18769583E-007     0.10000000E+002                7
 RTBSE| Simulation step         Convergence     Electron number  ETRS Iterations
 RTBSE|            4565     0.17983314E-007     0.10000000E+002                7
 RTBSE| Simulation step         Convergence     Electron number  ETRS Iterations
 RTBSE|            4566     0.16603287E-007     0.10000000E+002                7
 RTBSE| Simulation step         Convergence     Electron number  ETRS Iterations
 RTBSE|            4567     0.97412884E-007     0.10000000E+002                6
 RTBSE| Simulation step         Convergence     Electron number  ETRS Iterations
 RTBSE|            4568     0.89258940E-007     0.10000000E+002                6
 RTBSE| Simulation step         Convergence     Electron number  ETRS Iterations
 RTBSE|            4569     0.79501221E-007     0.10000000E+002                6
 RTBSE| Simulation step         Convergence     Electron number  ETRS Iterations
 RTBSE|            4570     0.68962077E-007     0.10000000E+002                6
 RTBSE| Simulation step         Convergence     Electron number  ETRS Iterations
 RTBSE|            4571     0.58463584E-007     0.10000000E+002                6
 RTBSE| Simulation step         Convergence     Electron number  ETRS Iterations
 RTBSE|            4572     0.48711708E-007     0.10000000E+002                6
 RTBSE| Simulation step         Convergence     Electron number  ETRS Iterations
 RTBSE|            4573     0.40075610E-007     0.10000000E+002                6
 RTBSE| Simulation step         Convergence     Electron number  ETRS Iterations
 RTBSE|            4574     0.32646903E-007     0.10000000E+002                6
 RTBSE| Simulation step         Convergence     Electron number  ETRS Iterations
 RTBSE|            4575     0.26167766E-007     0.10000000E+002                6
 RTBSE| Simulation step         Convergence     Electron number  ETRS Iterations
 RTBSE|            4576     0.22181596E-007     0.10000000E+002                6
 RTBSE| Simulation step         Convergence     Electron number  ETRS Iterations
 RTBSE|            4577     0.28514708E-007     0.10000000E+002                6
 RTBSE| Simulation step         Convergence     Electron number  ETRS Iterations
 RTBSE|            4578     0.37180952E-007     0.10000000E+002                6
 RTBSE| Simulation step         Convergence     Electron number  ETRS Iterations
 RTBSE|            4579     0.48657822E-007     0.10000000E+002                6
 RTBSE| Simulation step         Convergence     Electron number  ETRS Iterations
 RTBSE|            4580     0.63108196E-007     0.10000000E+002                6
 RTBSE| Simulation step         Convergence     Electron number  ETRS Iterations
 RTBSE|            4581     0.80272182E-007     0.10000000E+002                6
 RTBSE| Simulation step         Convergence     Electron number  ETRS Iterations
 RTBSE|            4582     0.99354197E-007     0.10000000E+002                6
 RTBSE| Simulation step         Convergence     Electron number  ETRS Iterations
 RTBSE|            4583     0.21223763E-007     0.10000000E+002                7
 RTBSE| Simulation step         Convergence     Electron number  ETRS Iterations
 RTBSE|            4584     0.24928694E-007     0.10000000E+002                7
 RTBSE| Simulation step         Convergence     Electron number  ETRS Iterations
 RTBSE|            4585     0.28135931E-007     0.10000000E+002                7
 RTBSE| Simulation step         Convergence     Electron number  ETRS Iterations
 RTBSE|            4586     0.30509051E-007     0.10000000E+002                7
 RTBSE| Simulation step         Convergence     Electron number  ETRS Iterations
 RTBSE|            4587     0.31804963E-007     0.10000000E+002                7
 RTBSE| Simulation step         Convergence     Electron number  ETRS Iterations
 RTBSE|            4588     0.31872385E-007     0.10000000E+002                7
 RTBSE| Simulation step         Convergence     Electron number  ETRS Iterations
 RTBSE|            4589     0.30669761E-007     0.10000000E+002                7
 RTBSE| Simulation step         Convergence     Electron number  ETRS Iterations
 RTBSE|            4590     0.28374307E-007     0.10000000E+002                7
 RTBSE| Simulation step         Convergence     Electron number  ETRS Iterations
 RTBSE|            4591     0.25179106E-007     0.10000000E+002                7
 RTBSE| Simulation step         Convergence     Electron number  ETRS Iterations
 RTBSE|            4592     0.21396601E-007     0.10000000E+002                7
 RTBSE| Simulation step         Convergence     Electron number  ETRS Iterations
 RTBSE|            4593     0.17374208E-007     0.10000000E+002                7
 RTBSE| Simulation step         Convergence     Electron number  ETRS Iterations
 RTBSE|            4594     0.13410417E-007     0.10000000E+002                7
 RTBSE| Simulation step         Convergence     Electron number  ETRS Iterations
 RTBSE|            4595     0.82568184E-007     0.10000000E+002                6
 RTBSE| Simulation step         Convergence     Electron number  ETRS Iterations
 RTBSE|            4596     0.64905722E-007     0.10000000E+002                6
 RTBSE| Simulation step         Convergence     Electron number  ETRS Iterations
 RTBSE|            4597     0.49756321E-007     0.10000000E+002                6
 RTBSE| Simulation step         Convergence     Electron number  ETRS Iterations
 RTBSE|            4598     0.37629544E-007     0.10000000E+002                6
 RTBSE| Simulation step         Convergence     Electron number  ETRS Iterations
 RTBSE|            4599     0.28495229E-007     0.10000000E+002                6
 RTBSE| Simulation step         Convergence     Electron number  ETRS Iterations
 RTBSE|            4600     0.21952850E-007     0.10000000E+002                6
 RTBSE| Simulation step         Convergence     Electron number  ETRS Iterations
 RTBSE|            4601     0.17268650E-007     0.10000000E+002                6
 RTBSE| Simulation step         Convergence     Electron number  ETRS Iterations
 RTBSE|            4602     0.14328556E-007     0.10000000E+002                6
 RTBSE| Simulation step         Convergence     Electron number  ETRS Iterations
 RTBSE|            4603     0.17511625E-007     0.10000000E+002                6
 RTBSE| Simulation step         Convergence     Electron number  ETRS Iterations
 RTBSE|            4604     0.22430827E-007     0.10000000E+002                6
 RTBSE| Simulation step         Convergence     Electron number  ETRS Iterations
 RTBSE|            4605     0.29339147E-007     0.10000000E+002                6
 RTBSE| Simulation step         Convergence     Electron number  ETRS Iterations
 RTBSE|            4606     0.38327798E-007     0.10000000E+002                6
 RTBSE| Simulation step         Convergence     Electron number  ETRS Iterations
 RTBSE|            4607     0.49101813E-007     0.10000000E+002                6
 RTBSE| Simulation step         Convergence     Electron number  ETRS Iterations
 RTBSE|            4608     0.61000739E-007     0.10000000E+002                6
 RTBSE| Simulation step         Convergence     Electron number  ETRS Iterations
 RTBSE|            4609     0.73270568E-007     0.10000000E+002                6
 RTBSE| Simulation step         Convergence     Electron number  ETRS Iterations
 RTBSE|            4610     0.85009224E-007     0.10000000E+002                6
 RTBSE| Simulation step         Convergence     Electron number  ETRS Iterations
 RTBSE|            4611     0.95299195E-007     0.10000000E+002                6
 RTBSE| Simulation step         Convergence     Electron number  ETRS Iterations
 RTBSE|            4612     0.17474854E-007     0.10000000E+002                7
 RTBSE| Simulation step         Convergence     Electron number  ETRS Iterations
 RTBSE|            4613     0.18573798E-007     0.10000000E+002                7
 RTBSE| Simulation step         Convergence     Electron number  ETRS Iterations
 RTBSE|            4614     0.19091123E-007     0.10000000E+002                7
 RTBSE| Simulation step         Convergence     Electron number  ETRS Iterations
 RTBSE|            4615     0.18973103E-007     0.10000000E+002                7
 RTBSE| Simulation step         Convergence     Electron number  ETRS Iterations
 RTBSE|            4616     0.18230291E-007     0.10000000E+002                7
 RTBSE| Simulation step         Convergence     Electron number  ETRS Iterations
 RTBSE|            4617     0.16906249E-007     0.10000000E+002                7
 RTBSE| Simulation step         Convergence     Electron number  ETRS Iterations
 RTBSE|            4618     0.98927403E-007     0.10000000E+002                6
 RTBSE| Simulation step         Convergence     Electron number  ETRS Iterations
 RTBSE|            4619     0.90782633E-007     0.10000000E+002                6
 RTBSE| Simulation step         Convergence     Electron number  ETRS Iterations
 RTBSE|            4620     0.81506798E-007     0.10000000E+002                6
 RTBSE| Simulation step         Convergence     Electron number  ETRS Iterations
 RTBSE|            4621     0.71478015E-007     0.10000000E+002                6
 RTBSE| Simulation step         Convergence     Electron number  ETRS Iterations
 RTBSE|            4622     0.61473757E-007     0.10000000E+002                6
 RTBSE| Simulation step         Convergence     Electron number  ETRS Iterations
 RTBSE|            4623     0.52125449E-007     0.10000000E+002                6
 RTBSE| Simulation step         Convergence     Electron number  ETRS Iterations
 RTBSE|            4624     0.43846140E-007     0.10000000E+002                6
 RTBSE| Simulation step         Convergence     Electron number  ETRS Iterations
 RTBSE|            4625     0.36702912E-007     0.10000000E+002                6
 RTBSE| Simulation step         Convergence     Electron number  ETRS Iterations
 RTBSE|            4626     0.30418961E-007     0.10000000E+002                6
 RTBSE| Simulation step         Convergence     Electron number  ETRS Iterations
 RTBSE|            4627     0.24361437E-007     0.10000000E+002                6
 RTBSE| Simulation step         Convergence     Electron number  ETRS Iterations
 RTBSE|            4628     0.25705335E-007     0.10000000E+002                6
 RTBSE| Simulation step         Convergence     Electron number  ETRS Iterations
 RTBSE|            4629     0.34406218E-007     0.10000000E+002                6
 RTBSE| Simulation step         Convergence     Electron number  ETRS Iterations
 RTBSE|            4630     0.46109211E-007     0.10000000E+002                6
 RTBSE| Simulation step         Convergence     Electron number  ETRS Iterations
 RTBSE|            4631     0.60905792E-007     0.10000000E+002                6
 RTBSE| Simulation step         Convergence     Electron number  ETRS Iterations
 RTBSE|            4632     0.78441465E-007     0.10000000E+002                6
 RTBSE| Simulation step         Convergence     Electron number  ETRS Iterations
 RTBSE|            4633     0.97806485E-007     0.10000000E+002                6
 RTBSE| Simulation step         Convergence     Electron number  ETRS Iterations
 RTBSE|            4634     0.20973658E-007     0.10000000E+002                7
 RTBSE| Simulation step         Convergence     Electron number  ETRS Iterations
 RTBSE|            4635     0.24647484E-007     0.10000000E+002                7
 RTBSE| Simulation step         Convergence     Electron number  ETRS Iterations
 RTBSE|            4636     0.27821550E-007     0.10000000E+002                7
 RTBSE| Simulation step         Convergence     Electron number  ETRS Iterations
 RTBSE|            4637     0.30150999E-007     0.10000000E+002                7
 RTBSE| Simulation step         Convergence     Electron number  ETRS Iterations
 RTBSE|            4638     0.31409349E-007     0.10000000E+002                7
 RTBSE| Simulation step         Convergence     Electron number  ETRS Iterations
 RTBSE|            4639     0.31482940E-007     0.10000000E+002                7
 RTBSE| Simulation step         Convergence     Electron number  ETRS Iterations
 RTBSE|            4640     0.30336702E-007     0.10000000E+002                7
 RTBSE| Simulation step         Convergence     Electron number  ETRS Iterations
 RTBSE|            4641     0.28130891E-007     0.10000000E+002                7
 RTBSE| Simulation step         Convergence     Electron number  ETRS Iterations
 RTBSE|            4642     0.25109312E-007     0.10000000E+002                7
 RTBSE| Simulation step         Convergence     Electron number  ETRS Iterations
 RTBSE|            4643     0.21542142E-007     0.10000000E+002                7
 RTBSE| Simulation step         Convergence     Electron number  ETRS Iterations
 RTBSE|            4644     0.17766798E-007     0.10000000E+002                7
 RTBSE| Simulation step         Convergence     Electron number  ETRS Iterations
 RTBSE|            4645     0.14058472E-007     0.10000000E+002                7
 RTBSE| Simulation step         Convergence     Electron number  ETRS Iterations
 RTBSE|            4646     0.85458687E-007     0.10000000E+002                6
 RTBSE| Simulation step         Convergence     Electron number  ETRS Iterations
 RTBSE|            4647     0.69177540E-007     0.10000000E+002                6
 RTBSE| Simulation step         Convergence     Electron number  ETRS Iterations
 RTBSE|            4648     0.55242775E-007     0.10000000E+002                6
 RTBSE| Simulation step         Convergence     Electron number  ETRS Iterations
 RTBSE|            4649     0.44073127E-007     0.10000000E+002                6
 RTBSE| Simulation step         Convergence     Electron number  ETRS Iterations
 RTBSE|            4650     0.35564495E-007     0.10000000E+002                6
 RTBSE| Simulation step         Convergence     Electron number  ETRS Iterations
 RTBSE|            4651     0.29309454E-007     0.10000000E+002                6
 RTBSE| Simulation step         Convergence     Electron number  ETRS Iterations
 RTBSE|            4652     0.24558735E-007     0.10000000E+002                6
 RTBSE| Simulation step         Convergence     Electron number  ETRS Iterations
 RTBSE|            4653     0.20475608E-007     0.10000000E+002                6
 RTBSE| Simulation step         Convergence     Electron number  ETRS Iterations
 RTBSE|            4654     0.16149889E-007     0.10000000E+002                6
 RTBSE| Simulation step         Convergence     Electron number  ETRS Iterations
 RTBSE|            4655     0.19634241E-007     0.10000000E+002                6
 RTBSE| Simulation step         Convergence     Electron number  ETRS Iterations
 RTBSE|            4656     0.27252628E-007     0.10000000E+002                6
 RTBSE| Simulation step         Convergence     Electron number  ETRS Iterations
 RTBSE|            4657     0.37158855E-007     0.10000000E+002                6
 RTBSE| Simulation step         Convergence     Electron number  ETRS Iterations
 RTBSE|            4658     0.48820474E-007     0.10000000E+002                6
 RTBSE| Simulation step         Convergence     Electron number  ETRS Iterations
 RTBSE|            4659     0.61571176E-007     0.10000000E+002                6
 RTBSE| Simulation step         Convergence     Electron number  ETRS Iterations
 RTBSE|            4660     0.74498114E-007     0.10000000E+002                6
 RTBSE| Simulation step         Convergence     Electron number  ETRS Iterations
 RTBSE|            4661     0.86691372E-007     0.10000000E+002                6
 RTBSE| Simulation step         Convergence     Electron number  ETRS Iterations
 RTBSE|            4662     0.97184765E-007     0.10000000E+002                6
 RTBSE| Simulation step         Convergence     Electron number  ETRS Iterations
 RTBSE|            4663     0.17765779E-007     0.10000000E+002                7
 RTBSE| Simulation step         Convergence     Electron number  ETRS Iterations
 RTBSE|            4664     0.18840000E-007     0.10000000E+002                7
 RTBSE| Simulation step         Convergence     Electron number  ETRS Iterations
 RTBSE|            4665     0.19295506E-007     0.10000000E+002                7
 RTBSE| Simulation step         Convergence     Electron number  ETRS Iterations
 RTBSE|            4666     0.19103531E-007     0.10000000E+002                7
 RTBSE| Simulation step         Convergence     Electron number  ETRS Iterations
 RTBSE|            4667     0.18277498E-007     0.10000000E+002                7
 RTBSE| Simulation step         Convergence     Electron number  ETRS Iterations
 RTBSE|            4668     0.16871990E-007     0.10000000E+002                7
 RTBSE| Simulation step         Convergence     Electron number  ETRS Iterations
 RTBSE|            4669     0.98226682E-007     0.10000000E+002                6
 RTBSE| Simulation step         Convergence     Electron number  ETRS Iterations
 RTBSE|            4670     0.89552339E-007     0.10000000E+002                6
 RTBSE| Simulation step         Convergence     Electron number  ETRS Iterations
 RTBSE|            4671     0.80255290E-007     0.10000000E+002                6
 RTBSE| Simulation step         Convergence     Electron number  ETRS Iterations
 RTBSE|            4672     0.70471997E-007     0.10000000E+002                6
 RTBSE| Simulation step         Convergence     Electron number  ETRS Iterations
 RTBSE|            4673     0.61022853E-007     0.10000000E+002                6
 RTBSE| Simulation step         Convergence     Electron number  ETRS Iterations
 RTBSE|            4674     0.52507561E-007     0.10000000E+002                6
 RTBSE| Simulation step         Convergence     Electron number  ETRS Iterations
 RTBSE|            4675     0.45253168E-007     0.10000000E+002                6
 RTBSE| Simulation step         Convergence     Electron number  ETRS Iterations
 RTBSE|            4676     0.39236775E-007     0.10000000E+002                6
 RTBSE| Simulation step         Convergence     Electron number  ETRS Iterations
 RTBSE|            4677     0.34062179E-007     0.10000000E+002                6
 RTBSE| Simulation step         Convergence     Electron number  ETRS Iterations
 RTBSE|            4678     0.28960527E-007     0.10000000E+002                6
 RTBSE| Simulation step         Convergence     Electron number  ETRS Iterations
 RTBSE|            4679     0.22956752E-007     0.10000000E+002                6
 RTBSE| Simulation step         Convergence     Electron number  ETRS Iterations
 RTBSE|            4680     0.29593327E-007     0.10000000E+002                6
 RTBSE| Simulation step         Convergence     Electron number  ETRS Iterations
 RTBSE|            4681     0.41106410E-007     0.10000000E+002                6
 RTBSE| Simulation step         Convergence     Electron number  ETRS Iterations
 RTBSE|            4682     0.56023642E-007     0.10000000E+002                6
 RTBSE| Simulation step         Convergence     Electron number  ETRS Iterations
 RTBSE|            4683     0.73804452E-007     0.10000000E+002                6
 RTBSE| Simulation step         Convergence     Electron number  ETRS Iterations
 RTBSE|            4684     0.93528731E-007     0.10000000E+002                6
 RTBSE| Simulation step         Convergence     Electron number  ETRS Iterations
 RTBSE|            4685     0.20157591E-007     0.10000000E+002                7
 RTBSE| Simulation step         Convergence     Electron number  ETRS Iterations
 RTBSE|            4686     0.23914193E-007     0.10000000E+002                7
 RTBSE| Simulation step         Convergence     Electron number  ETRS Iterations
 RTBSE|            4687     0.27132322E-007     0.10000000E+002                7
 RTBSE| Simulation step         Convergence     Electron number  ETRS Iterations
 RTBSE|            4688     0.29530652E-007     0.10000000E+002                7
 RTBSE| Simulation step         Convergence     Electron number  ETRS Iterations
 RTBSE|            4689     0.30858891E-007     0.10000000E+002                7
 RTBSE| Simulation step         Convergence     Electron number  ETRS Iterations
 RTBSE|            4690     0.31038489E-007     0.10000000E+002                7
 RTBSE| Simulation step         Convergence     Electron number  ETRS Iterations
 RTBSE|            4691     0.30073001E-007     0.10000000E+002                7
 RTBSE| Simulation step         Convergence     Electron number  ETRS Iterations
 RTBSE|            4692     0.28079235E-007     0.10000000E+002                7
 RTBSE| Simulation step         Convergence     Electron number  ETRS Iterations
 RTBSE|            4693     0.25284809E-007     0.10000000E+002                7
 RTBSE| Simulation step         Convergence     Electron number  ETRS Iterations
 RTBSE|            4694     0.21977181E-007     0.10000000E+002                7
 RTBSE| Simulation step         Convergence     Electron number  ETRS Iterations
 RTBSE|            4695     0.18458529E-007     0.10000000E+002                7
 RTBSE| Simulation step         Convergence     Electron number  ETRS Iterations
 RTBSE|            4696     0.14980498E-007     0.10000000E+002                7
 RTBSE| Simulation step         Convergence     Electron number  ETRS Iterations
 RTBSE|            4697     0.89797185E-007     0.10000000E+002                6
 RTBSE| Simulation step         Convergence     Electron number  ETRS Iterations
 RTBSE|            4698     0.74767173E-007     0.10000000E+002                6
 RTBSE| Simulation step         Convergence     Electron number  ETRS Iterations
 RTBSE|            4699     0.61883314E-007     0.10000000E+002                6
 RTBSE| Simulation step         Convergence     Electron number  ETRS Iterations
 RTBSE|            4700     0.51449610E-007     0.10000000E+002                6
 RTBSE| Simulation step         Convergence     Electron number  ETRS Iterations
 RTBSE|            4701     0.43396626E-007     0.10000000E+002                6
 RTBSE| Simulation step         Convergence     Electron number  ETRS Iterations
 RTBSE|            4702     0.37229638E-007     0.10000000E+002                6
 RTBSE| Simulation step         Convergence     Electron number  ETRS Iterations
 RTBSE|            4703     0.32213762E-007     0.10000000E+002                6
 RTBSE| Simulation step         Convergence     Electron number  ETRS Iterations
 RTBSE|            4704     0.27497645E-007     0.10000000E+002                6
 RTBSE| Simulation step         Convergence     Electron number  ETRS Iterations
 RTBSE|            4705     0.22249436E-007     0.10000000E+002                6
 RTBSE| Simulation step         Convergence     Electron number  ETRS Iterations
 RTBSE|            4706     0.17952821E-007     0.10000000E+002                6
 RTBSE| Simulation step         Convergence     Electron number  ETRS Iterations
 RTBSE|            4707     0.26235456E-007     0.10000000E+002                6
 RTBSE| Simulation step         Convergence     Electron number  ETRS Iterations
 RTBSE|            4708     0.37184534E-007     0.10000000E+002                6
 RTBSE| Simulation step         Convergence     Electron number  ETRS Iterations
 RTBSE|            4709     0.49903430E-007     0.10000000E+002                6
 RTBSE| Simulation step         Convergence     Electron number  ETRS Iterations
 RTBSE|            4710     0.63461854E-007     0.10000000E+002                6
 RTBSE| Simulation step         Convergence     Electron number  ETRS Iterations
 RTBSE|            4711     0.76871029E-007     0.10000000E+002                6
 RTBSE| Simulation step         Convergence     Electron number  ETRS Iterations
 RTBSE|            4712     0.89106673E-007     0.10000000E+002                6
 RTBSE| Simulation step         Convergence     Electron number  ETRS Iterations
 RTBSE|            4713     0.99281058E-007     0.10000000E+002                6
 RTBSE| Simulation step         Convergence     Electron number  ETRS Iterations
 RTBSE|            4714     0.18025158E-007     0.10000000E+002                7
 RTBSE| Simulation step         Convergence     Electron number  ETRS Iterations
 RTBSE|            4715     0.18935640E-007     0.10000000E+002                7
 RTBSE| Simulation step         Convergence     Electron number  ETRS Iterations
 RTBSE|            4716     0.19233931E-007     0.10000000E+002                7
 RTBSE| Simulation step         Convergence     Electron number  ETRS Iterations
 RTBSE|            4717     0.18835972E-007     0.10000000E+002                7
 RTBSE| Simulation step         Convergence     Electron number  ETRS Iterations
 RTBSE|            4718     0.17858109E-007     0.10000000E+002                7
 RTBSE| Simulation step         Convergence     Electron number  ETRS Iterations
 RTBSE|            4719     0.16356261E-007     0.10000000E+002                7
 RTBSE| Simulation step         Convergence     Electron number  ETRS Iterations
 RTBSE|            4720     0.94516587E-007     0.10000000E+002                6
 RTBSE| Simulation step         Convergence     Electron number  ETRS Iterations
 RTBSE|            4721     0.85747695E-007     0.10000000E+002                6
 RTBSE| Simulation step         Convergence     Electron number  ETRS Iterations
 RTBSE|            4722     0.76872525E-007     0.10000000E+002                6
 RTBSE| Simulation step         Convergence     Electron number  ETRS Iterations
 RTBSE|            4723     0.68017170E-007     0.10000000E+002                6
 RTBSE| Simulation step         Convergence     Electron number  ETRS Iterations
 RTBSE|            4724     0.59936814E-007     0.10000000E+002                6
 RTBSE| Simulation step         Convergence     Electron number  ETRS Iterations
 RTBSE|            4725     0.53146278E-007     0.10000000E+002                6
 RTBSE| Simulation step         Convergence     Electron number  ETRS Iterations
 RTBSE|            4726     0.47747842E-007     0.10000000E+002                6
 RTBSE| Simulation step         Convergence     Electron number  ETRS Iterations
 RTBSE|            4727     0.43541766E-007     0.10000000E+002                6
 RTBSE| Simulation step         Convergence     Electron number  ETRS Iterations
 RTBSE|            4728     0.39950647E-007     0.10000000E+002                6
 RTBSE| Simulation step         Convergence     Electron number  ETRS Iterations
 RTBSE|            4729     0.36103106E-007     0.10000000E+002                6
 RTBSE| Simulation step         Convergence     Electron number  ETRS Iterations
 RTBSE|            4730     0.30968117E-007     0.10000000E+002                6
 RTBSE| Simulation step         Convergence     Electron number  ETRS Iterations
 RTBSE|            4731     0.24083891E-007     0.10000000E+002                6
 RTBSE| Simulation step         Convergence     Electron number  ETRS Iterations
 RTBSE|            4732     0.35071187E-007     0.10000000E+002                6
 RTBSE| Simulation step         Convergence     Electron number  ETRS Iterations
 RTBSE|            4733     0.50252258E-007     0.10000000E+002                6
 RTBSE| Simulation step         Convergence     Electron number  ETRS Iterations
 RTBSE|            4734     0.68777891E-007     0.10000000E+002                6
 RTBSE| Simulation step         Convergence     Electron number  ETRS Iterations
 RTBSE|            4735     0.89383678E-007     0.10000000E+002                6
 RTBSE| Simulation step         Convergence     Electron number  ETRS Iterations
 RTBSE|            4736     0.19491297E-007     0.10000000E+002                7
 RTBSE| Simulation step         Convergence     Electron number  ETRS Iterations
 RTBSE|            4737     0.23434946E-007     0.10000000E+002                7
 RTBSE| Simulation step         Convergence     Electron number  ETRS Iterations
 RTBSE|            4738     0.26820341E-007     0.10000000E+002                7
 RTBSE| Simulation step         Convergence     Electron number  ETRS Iterations
 RTBSE|            4739     0.29348228E-007     0.10000000E+002                7
 RTBSE| Simulation step         Convergence     Electron number  ETRS Iterations
 RTBSE|            4740     0.30791907E-007     0.10000000E+002                7
 RTBSE| Simulation step         Convergence     Electron number  ETRS Iterations
 RTBSE|            4741     0.31092731E-007     0.10000000E+002                7
 RTBSE| Simulation step         Convergence     Electron number  ETRS Iterations
 RTBSE|            4742     0.30213704E-007     0.10000000E+002                7
 RTBSE| Simulation step         Convergence     Electron number  ETRS Iterations
 RTBSE|            4743     0.28323980E-007     0.10000000E+002                7
 RTBSE| Simulation step         Convergence     Electron number  ETRS Iterations
 RTBSE|            4744     0.25657095E-007     0.10000000E+002                7
 RTBSE| Simulation step         Convergence     Electron number  ETRS Iterations
 RTBSE|            4745     0.22479591E-007     0.10000000E+002                7
 RTBSE| Simulation step         Convergence     Electron number  ETRS Iterations
 RTBSE|            4746     0.19107356E-007     0.10000000E+002                7
 RTBSE| Simulation step         Convergence     Electron number  ETRS Iterations
 RTBSE|            4747     0.15801880E-007     0.10000000E+002                7
 RTBSE| Simulation step         Convergence     Electron number  ETRS Iterations
 RTBSE|            4748     0.93846390E-007     0.10000000E+002                6
 RTBSE| Simulation step         Convergence     Electron number  ETRS Iterations
 RTBSE|            4749     0.79838437E-007     0.10000000E+002                6
 RTBSE| Simulation step         Convergence     Electron number  ETRS Iterations
 RTBSE|            4750     0.67875169E-007     0.10000000E+002                6
 RTBSE| Simulation step         Convergence     Electron number  ETRS Iterations
 RTBSE|            4751     0.58166646E-007     0.10000000E+002                6
 RTBSE| Simulation step         Convergence     Electron number  ETRS Iterations
 RTBSE|            4752     0.50531996E-007     0.10000000E+002                6
 RTBSE| Simulation step         Convergence     Electron number  ETRS Iterations
 RTBSE|            4753     0.44356964E-007     0.10000000E+002                6
 RTBSE| Simulation step         Convergence     Electron number  ETRS Iterations
 RTBSE|            4754     0.38869537E-007     0.10000000E+002                6
 RTBSE| Simulation step         Convergence     Electron number  ETRS Iterations
 RTBSE|            4755     0.33263433E-007     0.10000000E+002                6
 RTBSE| Simulation step         Convergence     Electron number  ETRS Iterations
 RTBSE|            4756     0.26774138E-007     0.10000000E+002                6
 RTBSE| Simulation step         Convergence     Electron number  ETRS Iterations
 RTBSE|            4757     0.18877079E-007     0.10000000E+002                6
 RTBSE| Simulation step         Convergence     Electron number  ETRS Iterations
 RTBSE|            4758     0.26513326E-007     0.10000000E+002                6
 RTBSE| Simulation step         Convergence     Electron number  ETRS Iterations
 RTBSE|            4759     0.38373886E-007     0.10000000E+002                6
 RTBSE| Simulation step         Convergence     Electron number  ETRS Iterations
 RTBSE|            4760     0.51753110E-007     0.10000000E+002                6
 RTBSE| Simulation step         Convergence     Electron number  ETRS Iterations
 RTBSE|            4761     0.65568134E-007     0.10000000E+002                6
 RTBSE| Simulation step         Convergence     Electron number  ETRS Iterations
 RTBSE|            4762     0.78737462E-007     0.10000000E+002                6
 RTBSE| Simulation step         Convergence     Electron number  ETRS Iterations
 RTBSE|            4763     0.90322364E-007     0.10000000E+002                6
 RTBSE| Simulation step         Convergence     Electron number  ETRS Iterations
 RTBSE|            4764     0.99476695E-007     0.10000000E+002                6
 RTBSE| Simulation step         Convergence     Electron number  ETRS Iterations
 RTBSE|            4765     0.17871576E-007     0.10000000E+002                7
 RTBSE| Simulation step         Convergence     Electron number  ETRS Iterations
 RTBSE|            4766     0.18566199E-007     0.10000000E+002                7
 RTBSE| Simulation step         Convergence     Electron number  ETRS Iterations
 RTBSE|            4767     0.18647412E-007     0.10000000E+002                7
 RTBSE| Simulation step         Convergence     Electron number  ETRS Iterations
 RTBSE|            4768     0.18097532E-007     0.10000000E+002                7
 RTBSE| Simulation step         Convergence     Electron number  ETRS Iterations
 RTBSE|            4769     0.17027379E-007     0.10000000E+002                7
 RTBSE| Simulation step         Convergence     Electron number  ETRS Iterations
 RTBSE|            4770     0.96699155E-007     0.10000000E+002                6
 RTBSE| Simulation step         Convergence     Electron number  ETRS Iterations
 RTBSE|            4771     0.89022593E-007     0.10000000E+002                6
 RTBSE| Simulation step         Convergence     Electron number  ETRS Iterations
 RTBSE|            4772     0.80845613E-007     0.10000000E+002                6
 RTBSE| Simulation step         Convergence     Electron number  ETRS Iterations
 RTBSE|            4773     0.73195987E-007     0.10000000E+002                6
 RTBSE| Simulation step         Convergence     Electron number  ETRS Iterations
 RTBSE|            4774     0.66049566E-007     0.10000000E+002                6
 RTBSE| Simulation step         Convergence     Electron number  ETRS Iterations
 RTBSE|            4775     0.59994211E-007     0.10000000E+002                6
 RTBSE| Simulation step         Convergence     Electron number  ETRS Iterations
 RTBSE|            4776     0.55346419E-007     0.10000000E+002                6
 RTBSE| Simulation step         Convergence     Electron number  ETRS Iterations
 RTBSE|            4777     0.52080205E-007     0.10000000E+002                6
 RTBSE| Simulation step         Convergence     Electron number  ETRS Iterations
 RTBSE|            4778     0.49792500E-007     0.10000000E+002                6
 RTBSE| Simulation step         Convergence     Electron number  ETRS Iterations
 RTBSE|            4779     0.47807728E-007     0.10000000E+002                6
 RTBSE| Simulation step         Convergence     Electron number  ETRS Iterations
 RTBSE|            4780     0.45086676E-007     0.10000000E+002                6
 RTBSE| Simulation step         Convergence     Electron number  ETRS Iterations
 RTBSE|            4781     0.40478001E-007     0.10000000E+002                6
 RTBSE| Simulation step         Convergence     Electron number  ETRS Iterations
 RTBSE|            4782     0.32867888E-007     0.10000000E+002                6
 RTBSE| Simulation step         Convergence     Electron number  ETRS Iterations
 RTBSE|            4783     0.30191658E-007     0.10000000E+002                6
 RTBSE| Simulation step         Convergence     Electron number  ETRS Iterations
 RTBSE|            4784     0.45735691E-007     0.10000000E+002                6
 RTBSE| Simulation step         Convergence     Electron number  ETRS Iterations
 RTBSE|            4785     0.65229608E-007     0.10000000E+002                6
 RTBSE| Simulation step         Convergence     Electron number  ETRS Iterations
 RTBSE|            4786     0.87027284E-007     0.10000000E+002                6
 RTBSE| Simulation step         Convergence     Electron number  ETRS Iterations
 RTBSE|            4787     0.19212016E-007     0.10000000E+002                7
 RTBSE| Simulation step         Convergence     Electron number  ETRS Iterations
 RTBSE|            4788     0.23332223E-007     0.10000000E+002                7
 RTBSE| Simulation step         Convergence     Electron number  ETRS Iterations
 RTBSE|            4789     0.26826979E-007     0.10000000E+002                7
 RTBSE| Simulation step         Convergence     Electron number  ETRS Iterations
 RTBSE|            4790     0.29399073E-007     0.10000000E+002                7
 RTBSE| Simulation step         Convergence     Electron number  ETRS Iterations
 RTBSE|            4791     0.30840215E-007     0.10000000E+002                7
 RTBSE| Simulation step         Convergence     Electron number  ETRS Iterations
 RTBSE|            4792     0.31075849E-007     0.10000000E+002                7
 RTBSE| Simulation step         Convergence     Electron number  ETRS Iterations
 RTBSE|            4793     0.30164531E-007     0.10000000E+002                7
 RTBSE| Simulation step         Convergence     Electron number  ETRS Iterations
 RTBSE|            4794     0.28273261E-007     0.10000000E+002                7
 RTBSE| Simulation step         Convergence     Electron number  ETRS Iterations
 RTBSE|            4795     0.25658053E-007     0.10000000E+002                7
 RTBSE| Simulation step         Convergence     Electron number  ETRS Iterations
 RTBSE|            4796     0.22593815E-007     0.10000000E+002                7
 RTBSE| Simulation step         Convergence     Electron number  ETRS Iterations
 RTBSE|            4797     0.19377846E-007     0.10000000E+002                7
 RTBSE| Simulation step         Convergence     Electron number  ETRS Iterations
 RTBSE|            4798     0.16267355E-007     0.10000000E+002                7
 RTBSE| Simulation step         Convergence     Electron number  ETRS Iterations
 RTBSE|            4799     0.95935936E-007     0.10000000E+002                6
 RTBSE| Simulation step         Convergence     Electron number  ETRS Iterations
 RTBSE|            4800     0.83138057E-007     0.10000000E+002                6
 RTBSE| Simulation step         Convergence     Electron number  ETRS Iterations
 RTBSE|            4801     0.72238842E-007     0.10000000E+002                6
 RTBSE| Simulation step         Convergence     Electron number  ETRS Iterations
 RTBSE|            4802     0.63305345E-007     0.10000000E+002                6
 RTBSE| Simulation step         Convergence     Electron number  ETRS Iterations
 RTBSE|            4803     0.55983720E-007     0.10000000E+002                6
 RTBSE| Simulation step         Convergence     Electron number  ETRS Iterations
 RTBSE|            4804     0.49723592E-007     0.10000000E+002                6
 RTBSE| Simulation step         Convergence     Electron number  ETRS Iterations
 RTBSE|            4805     0.43782096E-007     0.10000000E+002                6
 RTBSE| Simulation step         Convergence     Electron number  ETRS Iterations
 RTBSE|            4806     0.37436444E-007     0.10000000E+002                6
 RTBSE| Simulation step         Convergence     Electron number  ETRS Iterations
 RTBSE|            4807     0.30051654E-007     0.10000000E+002                6
 RTBSE| Simulation step         Convergence     Electron number  ETRS Iterations
 RTBSE|            4808     0.21206040E-007     0.10000000E+002                6
 RTBSE| Simulation step         Convergence     Electron number  ETRS Iterations
 RTBSE|            4809     0.25693929E-007     0.10000000E+002                6
 RTBSE| Simulation step         Convergence     Electron number  ETRS Iterations
 RTBSE|            4810     0.37777673E-007     0.10000000E+002                6
 RTBSE| Simulation step         Convergence     Electron number  ETRS Iterations
 RTBSE|            4811     0.51194193E-007     0.10000000E+002                6
 RTBSE| Simulation step         Convergence     Electron number  ETRS Iterations
 RTBSE|            4812     0.64737903E-007     0.10000000E+002                6
 RTBSE| Simulation step         Convergence     Electron number  ETRS Iterations
 RTBSE|            4813     0.77388429E-007     0.10000000E+002                6
 RTBSE| Simulation step         Convergence     Electron number  ETRS Iterations
 RTBSE|            4814     0.88278053E-007     0.10000000E+002                6
 RTBSE| Simulation step         Convergence     Electron number  ETRS Iterations
 RTBSE|            4815     0.96617242E-007     0.10000000E+002                6
 RTBSE| Simulation step         Convergence     Electron number  ETRS Iterations
 RTBSE|            4816     0.17251394E-007     0.10000000E+002                7
 RTBSE| Simulation step         Convergence     Electron number  ETRS Iterations
 RTBSE|            4817     0.17822713E-007     0.10000000E+002                7
 RTBSE| Simulation step         Convergence     Electron number  ETRS Iterations
 RTBSE|            4818     0.17809902E-007     0.10000000E+002                7
 RTBSE| Simulation step         Convergence     Electron number  ETRS Iterations
 RTBSE|            4819     0.98807158E-007     0.10000000E+002                6
 RTBSE| Simulation step         Convergence     Electron number  ETRS Iterations
 RTBSE|            4820     0.96196605E-007     0.10000000E+002                6
 RTBSE| Simulation step         Convergence     Electron number  ETRS Iterations
 RTBSE|            4821     0.91080879E-007     0.10000000E+002                6
 RTBSE| Simulation step         Convergence     Electron number  ETRS Iterations
 RTBSE|            4822     0.84342140E-007     0.10000000E+002                6
 RTBSE| Simulation step         Convergence     Electron number  ETRS Iterations
 RTBSE|            4823     0.77228026E-007     0.10000000E+002                6
 RTBSE| Simulation step         Convergence     Electron number  ETRS Iterations
 RTBSE|            4824     0.71316265E-007     0.10000000E+002                6
 RTBSE| Simulation step         Convergence     Electron number  ETRS Iterations
 RTBSE|            4825     0.66225416E-007     0.10000000E+002                6
 RTBSE| Simulation step         Convergence     Electron number  ETRS Iterations
 RTBSE|            4826     0.62433782E-007     0.10000000E+002                6
 RTBSE| Simulation step         Convergence     Electron number  ETRS Iterations
 RTBSE|            4827     0.60126844E-007     0.10000000E+002                6
 RTBSE| Simulation step         Convergence     Electron number  ETRS Iterations
 RTBSE|            4828     0.59051073E-007     0.10000000E+002                6
 RTBSE| Simulation step         Convergence     Electron number  ETRS Iterations
 RTBSE|            4829     0.58613939E-007     0.10000000E+002                6
 RTBSE| Simulation step         Convergence     Electron number  ETRS Iterations
 RTBSE|            4830     0.57890541E-007     0.10000000E+002                6
 RTBSE| Simulation step         Convergence     Electron number  ETRS Iterations
 RTBSE|            4831     0.55753753E-007     0.10000000E+002                6
 RTBSE| Simulation step         Convergence     Electron number  ETRS Iterations
 RTBSE|            4832     0.51027325E-007     0.10000000E+002                6
 RTBSE| Simulation step         Convergence     Electron number  ETRS Iterations
 RTBSE|            4833     0.42628290E-007     0.10000000E+002                6
 RTBSE| Simulation step         Convergence     Electron number  ETRS Iterations
 RTBSE|            4834     0.29782989E-007     0.10000000E+002                6
 RTBSE| Simulation step         Convergence     Electron number  ETRS Iterations
 RTBSE|            4835     0.42835206E-007     0.10000000E+002                6
 RTBSE| Simulation step         Convergence     Electron number  ETRS Iterations
 RTBSE|            4836     0.63504323E-007     0.10000000E+002                6
 RTBSE| Simulation step         Convergence     Electron number  ETRS Iterations
 RTBSE|            4837     0.86572783E-007     0.10000000E+002                6
 RTBSE| Simulation step         Convergence     Electron number  ETRS Iterations
 RTBSE|            4838     0.19322651E-007     0.10000000E+002                7
 RTBSE| Simulation step         Convergence     Electron number  ETRS Iterations
 RTBSE|            4839     0.23557531E-007     0.10000000E+002                7
 RTBSE| Simulation step         Convergence     Electron number  ETRS Iterations
 RTBSE|            4840     0.27075125E-007     0.10000000E+002                7
 RTBSE| Simulation step         Convergence     Electron number  ETRS Iterations
 RTBSE|            4841     0.29588212E-007     0.10000000E+002                7
 RTBSE| Simulation step         Convergence     Electron number  ETRS Iterations
 RTBSE|            4842     0.30923327E-007     0.10000000E+002                7
 RTBSE| Simulation step         Convergence     Electron number  ETRS Iterations
 RTBSE|            4843     0.31041069E-007     0.10000000E+002                7
 RTBSE| Simulation step         Convergence     Electron number  ETRS Iterations
 RTBSE|            4844     0.30026539E-007     0.10000000E+002                7
 RTBSE| Simulation step         Convergence     Electron number  ETRS Iterations
 RTBSE|            4845     0.28086705E-007     0.10000000E+002                7
 RTBSE| Simulation step         Convergence     Electron number  ETRS Iterations
 RTBSE|            4846     0.25473619E-007     0.10000000E+002                7
 RTBSE| Simulation step         Convergence     Electron number  ETRS Iterations
 RTBSE|            4847     0.22497211E-007     0.10000000E+002                7
 RTBSE| Simulation step         Convergence     Electron number  ETRS Iterations
 RTBSE|            4848     0.19413287E-007     0.10000000E+002                7
 RTBSE| Simulation step         Convergence     Electron number  ETRS Iterations
 RTBSE|            4849     0.16469852E-007     0.10000000E+002                7
 RTBSE| Simulation step         Convergence     Electron number  ETRS Iterations
 RTBSE|            4850     0.96497810E-007     0.10000000E+002                6
 RTBSE| Simulation step         Convergence     Electron number  ETRS Iterations
 RTBSE|            4851     0.84583913E-007     0.10000000E+002                6
 RTBSE| Simulation step         Convergence     Electron number  ETRS Iterations
 RTBSE|            4852     0.74542970E-007     0.10000000E+002                6
 RTBSE| Simulation step         Convergence     Electron number  ETRS Iterations
 RTBSE|            4853     0.66345944E-007     0.10000000E+002                6
 RTBSE| Simulation step         Convergence     Electron number  ETRS Iterations
 RTBSE|            4854     0.59644558E-007     0.10000000E+002                6
 RTBSE| Simulation step         Convergence     Electron number  ETRS Iterations
 RTBSE|            4855     0.53828658E-007     0.10000000E+002                6
 RTBSE| Simulation step         Convergence     Electron number  ETRS Iterations
 RTBSE|            4856     0.48164078E-007     0.10000000E+002                6
 RTBSE| Simulation step         Convergence     Electron number  ETRS Iterations
 RTBSE|            4857     0.41934087E-007     0.10000000E+002                6
 RTBSE| Simulation step         Convergence     Electron number  ETRS Iterations
 RTBSE|            4858     0.34610008E-007     0.10000000E+002                6
 RTBSE| Simulation step         Convergence     Electron number  ETRS Iterations
 RTBSE|            4859     0.25629754E-007     0.10000000E+002                6
 RTBSE| Simulation step         Convergence     Electron number  ETRS Iterations
 RTBSE|            4860     0.22486027E-007     0.10000000E+002                6
 RTBSE| Simulation step         Convergence     Electron number  ETRS Iterations
 RTBSE|            4861     0.34322648E-007     0.10000000E+002                6
 RTBSE| Simulation step         Convergence     Electron number  ETRS Iterations
 RTBSE|            4862     0.47906212E-007     0.10000000E+002                6
 RTBSE| Simulation step         Convergence     Electron number  ETRS Iterations
 RTBSE|            4863     0.61656066E-007     0.10000000E+002                6
 RTBSE| Simulation step         Convergence     Electron number  ETRS Iterations
 RTBSE|            4864     0.74494887E-007     0.10000000E+002                6
 RTBSE| Simulation step         Convergence     Electron number  ETRS Iterations
 RTBSE|            4865     0.85523729E-007     0.10000000E+002                6
 RTBSE| Simulation step         Convergence     Electron number  ETRS Iterations
 RTBSE|            4866     0.93967895E-007     0.10000000E+002                6
 RTBSE| Simulation step         Convergence     Electron number  ETRS Iterations
 RTBSE|            4867     0.99285495E-007     0.10000000E+002                6
 RTBSE| Simulation step         Convergence     Electron number  ETRS Iterations
 RTBSE|            4868     0.17339511E-007     0.10000000E+002                7
 RTBSE| Simulation step         Convergence     Electron number  ETRS Iterations
 RTBSE|            4869     0.17353932E-007     0.10000000E+002                7
 RTBSE| Simulation step         Convergence     Electron number  ETRS Iterations
 RTBSE|            4870     0.95823187E-007     0.10000000E+002                6
 RTBSE| Simulation step         Convergence     Electron number  ETRS Iterations
 RTBSE|            4871     0.93124556E-007     0.10000000E+002                6
 RTBSE| Simulation step         Convergence     Electron number  ETRS Iterations
 RTBSE|            4872     0.88668862E-007     0.10000000E+002                6
 RTBSE| Simulation step         Convergence     Electron number  ETRS Iterations
 RTBSE|            4873     0.82871217E-007     0.10000000E+002                6
 RTBSE| Simulation step         Convergence     Electron number  ETRS Iterations
 RTBSE|            4874     0.76692670E-007     0.10000000E+002                6
 RTBSE| Simulation step         Convergence     Electron number  ETRS Iterations
 RTBSE|            4875     0.72151407E-007     0.10000000E+002                6
 RTBSE| Simulation step         Convergence     Electron number  ETRS Iterations
 RTBSE|            4876     0.68712709E-007     0.10000000E+002                6
 RTBSE| Simulation step         Convergence     Electron number  ETRS Iterations
 RTBSE|            4877     0.66567331E-007     0.10000000E+002                6
 RTBSE| Simulation step         Convergence     Electron number  ETRS Iterations
 RTBSE|            4878     0.65747272E-007     0.10000000E+002                6
 RTBSE| Simulation step         Convergence     Electron number  ETRS Iterations
 RTBSE|            4879     0.65869481E-007     0.10000000E+002                6
 RTBSE| Simulation step         Convergence     Electron number  ETRS Iterations
 RTBSE|            4880     0.66238152E-007     0.10000000E+002                6
 RTBSE| Simulation step         Convergence     Electron number  ETRS Iterations
 RTBSE|            4881     0.65866138E-007     0.10000000E+002                6
 RTBSE| Simulation step         Convergence     Electron number  ETRS Iterations
 RTBSE|            4882     0.63582752E-007     0.10000000E+002                6
 RTBSE| Simulation step         Convergence     Electron number  ETRS Iterations
 RTBSE|            4883     0.58167339E-007     0.10000000E+002                6
 RTBSE| Simulation step         Convergence     Electron number  ETRS Iterations
 RTBSE|            4884     0.48631608E-007     0.10000000E+002                6
 RTBSE| Simulation step         Convergence     Electron number  ETRS Iterations
 RTBSE|            4885     0.34365172E-007     0.10000000E+002                6
 RTBSE| Simulation step         Convergence     Electron number  ETRS Iterations
 RTBSE|            4886     0.41706895E-007     0.10000000E+002                6
 RTBSE| Simulation step         Convergence     Electron number  ETRS Iterations
 RTBSE|            4887     0.62998852E-007     0.10000000E+002                6
 RTBSE| Simulation step         Convergence     Electron number  ETRS Iterations
 RTBSE|            4888     0.86609719E-007     0.10000000E+002                6
 RTBSE| Simulation step         Convergence     Electron number  ETRS Iterations
 RTBSE|            4889     0.19436089E-007     0.10000000E+002                7
 RTBSE| Simulation step         Convergence     Electron number  ETRS Iterations
 RTBSE|            4890     0.23689476E-007     0.10000000E+002                7
 RTBSE| Simulation step         Convergence     Electron number  ETRS Iterations
 RTBSE|            4891     0.27130119E-007     0.10000000E+002                7
 RTBSE| Simulation step         Convergence     Electron number  ETRS Iterations
 RTBSE|            4892     0.29526489E-007     0.10000000E+002                7
 RTBSE| Simulation step         Convergence     Electron number  ETRS Iterations
 RTBSE|            4893     0.30726590E-007     0.10000000E+002                7
 RTBSE| Simulation step         Convergence     Electron number  ETRS Iterations
 RTBSE|            4894     0.30720060E-007     0.10000000E+002                7
 RTBSE| Simulation step         Convergence     Electron number  ETRS Iterations
 RTBSE|            4895     0.29616243E-007     0.10000000E+002                7
 RTBSE| Simulation step         Convergence     Electron number  ETRS Iterations
 RTBSE|            4896     0.27618905E-007     0.10000000E+002                7
 RTBSE| Simulation step         Convergence     Electron number  ETRS Iterations
 RTBSE|            4897     0.25003833E-007     0.10000000E+002                7
 RTBSE| Simulation step         Convergence     Electron number  ETRS Iterations
 RTBSE|            4898     0.22064850E-007     0.10000000E+002                7
 RTBSE| Simulation step         Convergence     Electron number  ETRS Iterations
 RTBSE|            4899     0.19082926E-007     0.10000000E+002                7
 RTBSE| Simulation step         Convergence     Electron number  ETRS Iterations
 RTBSE|            4900     0.16296909E-007     0.10000000E+002                7
 RTBSE| Simulation step         Convergence     Electron number  ETRS Iterations
 RTBSE|            4901     0.94590281E-007     0.10000000E+002                6
 RTBSE| Simulation step         Convergence     Electron number  ETRS Iterations
 RTBSE|            4902     0.83731710E-007     0.10000000E+002                6
 RTBSE| Simulation step         Convergence     Electron number  ETRS Iterations
 RTBSE|            4903     0.74980414E-007     0.10000000E+002                6
 RTBSE| Simulation step         Convergence     Electron number  ETRS Iterations
 RTBSE|            4904     0.68230738E-007     0.10000000E+002                6
 RTBSE| Simulation step         Convergence     Electron number  ETRS Iterations
 RTBSE|            4905     0.62956664E-007     0.10000000E+002                6
 RTBSE| Simulation step         Convergence     Electron number  ETRS Iterations
 RTBSE|            4906     0.58441967E-007     0.10000000E+002                6
 RTBSE| Simulation step         Convergence     Electron number  ETRS Iterations
 RTBSE|            4907     0.53846491E-007     0.10000000E+002                6
 RTBSE| Simulation step         Convergence     Electron number  ETRS Iterations
 RTBSE|            4908     0.48405996E-007     0.10000000E+002                6
 RTBSE| Simulation step         Convergence     Electron number  ETRS Iterations
 RTBSE|            4909     0.41660903E-007     0.10000000E+002                6
 RTBSE| Simulation step         Convergence     Electron number  ETRS Iterations
 RTBSE|            4910     0.32636382E-007     0.10000000E+002                6
 RTBSE| Simulation step         Convergence     Electron number  ETRS Iterations
 RTBSE|            4911     0.21624439E-007     0.10000000E+002                6
 RTBSE| Simulation step         Convergence     Electron number  ETRS Iterations
 RTBSE|            4912     0.30231636E-007     0.10000000E+002                6
 RTBSE| Simulation step         Convergence     Electron number  ETRS Iterations
 RTBSE|            4913     0.44298750E-007     0.10000000E+002                6
 RTBSE| Simulation step         Convergence     Electron number  ETRS Iterations
 RTBSE|            4914     0.58795517E-007     0.10000000E+002                6
 RTBSE| Simulation step         Convergence     Electron number  ETRS Iterations
 RTBSE|            4915     0.72381104E-007     0.10000000E+002                6
 RTBSE| Simulation step         Convergence     Electron number  ETRS Iterations
 RTBSE|            4916     0.84047211E-007     0.10000000E+002                6
 RTBSE| Simulation step         Convergence     Electron number  ETRS Iterations
 RTBSE|            4917     0.92932335E-007     0.10000000E+002                6
 RTBSE| Simulation step         Convergence     Electron number  ETRS Iterations
 RTBSE|            4918     0.98601058E-007     0.10000000E+002                6
 RTBSE| Simulation step         Convergence     Electron number  ETRS Iterations
 RTBSE|            4919     0.17190444E-007     0.10000000E+002                7
 RTBSE| Simulation step         Convergence     Electron number  ETRS Iterations
 RTBSE|            4920     0.99660885E-007     0.10000000E+002                6
 RTBSE| Simulation step         Convergence     Electron number  ETRS Iterations
 RTBSE|            4921     0.95652843E-007     0.10000000E+002                6
 RTBSE| Simulation step         Convergence     Electron number  ETRS Iterations
 RTBSE|            4922     0.92060508E-007     0.10000000E+002                6
 RTBSE| Simulation step         Convergence     Electron number  ETRS Iterations
 RTBSE|            4923     0.87961478E-007     0.10000000E+002                6
 RTBSE| Simulation step         Convergence     Electron number  ETRS Iterations
 RTBSE|            4924     0.82656288E-007     0.10000000E+002                6
 RTBSE| Simulation step         Convergence     Electron number  ETRS Iterations
 RTBSE|            4925     0.77092218E-007     0.10000000E+002                6
 RTBSE| Simulation step         Convergence     Electron number  ETRS Iterations
 RTBSE|            4926     0.72944120E-007     0.10000000E+002                6
 RTBSE| Simulation step         Convergence     Electron number  ETRS Iterations
 RTBSE|            4927     0.70217956E-007     0.10000000E+002                6
 RTBSE| Simulation step         Convergence     Electron number  ETRS Iterations
 RTBSE|            4928     0.68813093E-007     0.10000000E+002                6
 RTBSE| Simulation step         Convergence     Electron number  ETRS Iterations
 RTBSE|            4929     0.68670236E-007     0.10000000E+002                6
 RTBSE| Simulation step         Convergence     Electron number  ETRS Iterations
 RTBSE|            4930     0.69397256E-007     0.10000000E+002                6
 RTBSE| Simulation step         Convergence     Electron number  ETRS Iterations
 RTBSE|            4931     0.70249151E-007     0.10000000E+002                6
 RTBSE| Simulation step         Convergence     Electron number  ETRS Iterations
 RTBSE|            4932     0.70179735E-007     0.10000000E+002                6
 RTBSE| Simulation step         Convergence     Electron number  ETRS Iterations
 RTBSE|            4933     0.68011345E-007     0.10000000E+002                6
 RTBSE| Simulation step         Convergence     Electron number  ETRS Iterations
 RTBSE|            4934     0.62542118E-007     0.10000000E+002                6
 RTBSE| Simulation step         Convergence     Electron number  ETRS Iterations
 RTBSE|            4935     0.52831580E-007     0.10000000E+002                6
 RTBSE| Simulation step         Convergence     Electron number  ETRS Iterations
 RTBSE|            4936     0.38301428E-007     0.10000000E+002                6
 RTBSE| Simulation step         Convergence     Electron number  ETRS Iterations
 RTBSE|            4937     0.39018110E-007     0.10000000E+002                6
 RTBSE| Simulation step         Convergence     Electron number  ETRS Iterations
 RTBSE|            4938     0.60288569E-007     0.10000000E+002                6
 RTBSE| Simulation step         Convergence     Electron number  ETRS Iterations
 RTBSE|            4939     0.84068609E-007     0.10000000E+002                6
 RTBSE| Simulation step         Convergence     Electron number  ETRS Iterations
 RTBSE|            4940     0.19016335E-007     0.10000000E+002                7
 RTBSE| Simulation step         Convergence     Electron number  ETRS Iterations
 RTBSE|            4941     0.23271295E-007     0.10000000E+002                7
 RTBSE| Simulation step         Convergence     Electron number  ETRS Iterations
 RTBSE|            4942     0.26675993E-007     0.10000000E+002                7
 RTBSE| Simulation step         Convergence     Electron number  ETRS Iterations
 RTBSE|            4943     0.29008301E-007     0.10000000E+002                7
 RTBSE| Simulation step         Convergence     Electron number  ETRS Iterations
 RTBSE|            4944     0.30127077E-007     0.10000000E+002                7
 RTBSE| Simulation step         Convergence     Electron number  ETRS Iterations
 RTBSE|            4945     0.30033569E-007     0.10000000E+002                7
 RTBSE| Simulation step         Convergence     Electron number  ETRS Iterations
 RTBSE|            4946     0.28849471E-007     0.10000000E+002                7
 RTBSE| Simulation step         Convergence     Electron number  ETRS Iterations
 RTBSE|            4947     0.26821628E-007     0.10000000E+002                7
 RTBSE| Simulation step         Convergence     Electron number  ETRS Iterations
 RTBSE|            4948     0.24228785E-007     0.10000000E+002                7
 RTBSE| Simulation step         Convergence     Electron number  ETRS Iterations
 RTBSE|            4949     0.21409657E-007     0.10000000E+002                7
 RTBSE| Simulation step         Convergence     Electron number  ETRS Iterations
 RTBSE|            4950     0.18628056E-007     0.10000000E+002                7
 RTBSE| Simulation step         Convergence     Electron number  ETRS Iterations
 RTBSE|            4951     0.16121014E-007     0.10000000E+002                7
 RTBSE| Simulation step         Convergence     Electron number  ETRS Iterations
 RTBSE|            4952     0.92544523E-007     0.10000000E+002                6
 RTBSE| Simulation step         Convergence     Electron number  ETRS Iterations
 RTBSE|            4953     0.83725773E-007     0.10000000E+002                6
 RTBSE| Simulation step         Convergence     Electron number  ETRS Iterations
 RTBSE|            4954     0.77222455E-007     0.10000000E+002                6
 RTBSE| Simulation step         Convergence     Electron number  ETRS Iterations
 RTBSE|            4955     0.72721258E-007     0.10000000E+002                6
 RTBSE| Simulation step         Convergence     Electron number  ETRS Iterations
 RTBSE|            4956     0.69464793E-007     0.10000000E+002                6
 RTBSE| Simulation step         Convergence     Electron number  ETRS Iterations
 RTBSE|            4957     0.66544263E-007     0.10000000E+002                6
 RTBSE| Simulation step         Convergence     Electron number  ETRS Iterations
 RTBSE|            4958     0.62962241E-007     0.10000000E+002                6
 RTBSE| Simulation step         Convergence     Electron number  ETRS Iterations
 RTBSE|            4959     0.57872037E-007     0.10000000E+002                6
 RTBSE| Simulation step         Convergence     Electron number  ETRS Iterations
 RTBSE|            4960     0.50929171E-007     0.10000000E+002                6
 RTBSE| Simulation step         Convergence     Electron number  ETRS Iterations
 RTBSE|            4961     0.41224827E-007     0.10000000E+002                6
 RTBSE| Simulation step         Convergence     Electron number  ETRS Iterations
 RTBSE|            4962     0.28971342E-007     0.10000000E+002                6
 RTBSE| Simulation step         Convergence     Electron number  ETRS Iterations
 RTBSE|            4963     0.27395475E-007     0.10000000E+002                6
 RTBSE| Simulation step         Convergence     Electron number  ETRS Iterations
 RTBSE|            4964     0.42215922E-007     0.10000000E+002                6
 RTBSE| Simulation step         Convergence     Electron number  ETRS Iterations
 RTBSE|            4965     0.57789918E-007     0.10000000E+002                6
 RTBSE| Simulation step         Convergence     Electron number  ETRS Iterations
 RTBSE|            4966     0.72363190E-007     0.10000000E+002                6
 RTBSE| Simulation step         Convergence     Electron number  ETRS Iterations
 RTBSE|            4967     0.84716627E-007     0.10000000E+002                6
 RTBSE| Simulation step         Convergence     Electron number  ETRS Iterations
 RTBSE|            4968     0.94061557E-007     0.10000000E+002                6
 RTBSE| Simulation step         Convergence     Electron number  ETRS Iterations
 RTBSE|            4969     0.99888598E-007     0.10000000E+002                6
 RTBSE| Simulation step         Convergence     Electron number  ETRS Iterations
 RTBSE|            4970     0.17374464E-007     0.10000000E+002                7
 RTBSE| Simulation step         Convergence     Electron number  ETRS Iterations
 RTBSE|            4971     0.17389091E-007     0.10000000E+002                7
 RTBSE| Simulation step         Convergence     Electron number  ETRS Iterations
 RTBSE|            4972     0.96398259E-007     0.10000000E+002                6
 RTBSE| Simulation step         Convergence     Electron number  ETRS Iterations
 RTBSE|            4973     0.92082293E-007     0.10000000E+002                6
 RTBSE| Simulation step         Convergence     Electron number  ETRS Iterations
 RTBSE|            4974     0.87647741E-007     0.10000000E+002                6
 RTBSE| Simulation step         Convergence     Electron number  ETRS Iterations
 RTBSE|            4975     0.82061657E-007     0.10000000E+002                6
 RTBSE| Simulation step         Convergence     Electron number  ETRS Iterations
 RTBSE|            4976     0.76329069E-007     0.10000000E+002                6
 RTBSE| Simulation step         Convergence     Electron number  ETRS Iterations
 RTBSE|            4977     0.71987293E-007     0.10000000E+002                6
 RTBSE| Simulation step         Convergence     Electron number  ETRS Iterations
 RTBSE|            4978     0.69432798E-007     0.10000000E+002                6
 RTBSE| Simulation step         Convergence     Electron number  ETRS Iterations
 RTBSE|            4979     0.68404223E-007     0.10000000E+002                6
 RTBSE| Simulation step         Convergence     Electron number  ETRS Iterations
 RTBSE|            4980     0.68843354E-007     0.10000000E+002                6
 RTBSE| Simulation step         Convergence     Electron number  ETRS Iterations
 RTBSE|            4981     0.70312719E-007     0.10000000E+002                6
 RTBSE| Simulation step         Convergence     Electron number  ETRS Iterations
 RTBSE|            4982     0.72041359E-007     0.10000000E+002                6
 RTBSE| Simulation step         Convergence     Electron number  ETRS Iterations
 RTBSE|            4983     0.72918363E-007     0.10000000E+002                6
 RTBSE| Simulation step         Convergence     Electron number  ETRS Iterations
 RTBSE|            4984     0.71647290E-007     0.10000000E+002                6
 RTBSE| Simulation step         Convergence     Electron number  ETRS Iterations
 RTBSE|            4985     0.66961983E-007     0.10000000E+002                6
 RTBSE| Simulation step         Convergence     Electron number  ETRS Iterations
 RTBSE|            4986     0.57773221E-007     0.10000000E+002                6
 RTBSE| Simulation step         Convergence     Electron number  ETRS Iterations
 RTBSE|            4987     0.43451000E-007     0.10000000E+002                6
 RTBSE| Simulation step         Convergence     Electron number  ETRS Iterations
 RTBSE|            4988     0.35278245E-007     0.10000000E+002                6
 RTBSE| Simulation step         Convergence     Electron number  ETRS Iterations
 RTBSE|            4989     0.56187638E-007     0.10000000E+002                6
 RTBSE| Simulation step         Convergence     Electron number  ETRS Iterations
 RTBSE|            4990     0.80141797E-007     0.10000000E+002                6
 RTBSE| Simulation step         Convergence     Electron number  ETRS Iterations
 RTBSE|            4991     0.18324356E-007     0.10000000E+002                7
 RTBSE| Simulation step         Convergence     Electron number  ETRS Iterations
 RTBSE|            4992     0.22625221E-007     0.10000000E+002                7
 RTBSE| Simulation step         Convergence     Electron number  ETRS Iterations
 RTBSE|            4993     0.26050107E-007     0.10000000E+002                7
 RTBSE| Simulation step         Convergence     Electron number  ETRS Iterations
 RTBSE|            4994     0.28358620E-007     0.10000000E+002                7
 RTBSE| Simulation step         Convergence     Electron number  ETRS Iterations
 RTBSE|            4995     0.29416099E-007     0.10000000E+002                7
 RTBSE| Simulation step         Convergence     Electron number  ETRS Iterations
 RTBSE|            4996     0.29254220E-007     0.10000000E+002                7
 RTBSE| Simulation step         Convergence     Electron number  ETRS Iterations
 RTBSE|            4997     0.28055366E-007     0.10000000E+002                7
 RTBSE| Simulation step         Convergence     Electron number  ETRS Iterations
 RTBSE|            4998     0.26085862E-007     0.10000000E+002                7
 RTBSE| Simulation step         Convergence     Electron number  ETRS Iterations
 RTBSE|            4999     0.23629927E-007     0.10000000E+002                7
 RTBSE| Simulation step         Convergence     Electron number  ETRS Iterations
 RTBSE|            5000     0.21028110E-007     0.10000000E+002                7
 RTBSE| Simulation step         Convergence     Electron number  ETRS Iterations
 RTBSE|            5001     0.18540911E-007     0.10000000E+002                7
 RTBSE| Simulation step         Convergence     Electron number  ETRS Iterations
 RTBSE|            5002     0.16404254E-007     0.10000000E+002                7
 RTBSE| Simulation step         Convergence     Electron number  ETRS Iterations
 RTBSE|            5003     0.93385038E-007     0.10000000E+002                6
 RTBSE| Simulation step         Convergence     Electron number  ETRS Iterations
 RTBSE|            5004     0.86862045E-007     0.10000000E+002                6
 RTBSE| Simulation step         Convergence     Electron number  ETRS Iterations
 RTBSE|            5005     0.82553830E-007     0.10000000E+002                6
 RTBSE| Simulation step         Convergence     Electron number  ETRS Iterations
 RTBSE|            5006     0.79905423E-007     0.10000000E+002                6
 RTBSE| Simulation step         Convergence     Electron number  ETRS Iterations
 RTBSE|            5007     0.78017071E-007     0.10000000E+002                6
 RTBSE| Simulation step         Convergence     Electron number  ETRS Iterations
 RTBSE|            5008     0.75813027E-007     0.10000000E+002                6
 RTBSE| Simulation step         Convergence     Electron number  ETRS Iterations
 RTBSE|            5009     0.72320292E-007     0.10000000E+002                6
 RTBSE| Simulation step         Convergence     Electron number  ETRS Iterations
 RTBSE|            5010     0.66711506E-007     0.10000000E+002                6
 RTBSE| Simulation step         Convergence     Electron number  ETRS Iterations
 RTBSE|            5011     0.58764299E-007     0.10000000E+002                6
 RTBSE| Simulation step         Convergence     Electron number  ETRS Iterations
 RTBSE|            5012     0.47777424E-007     0.10000000E+002                6
 RTBSE| Simulation step         Convergence     Electron number  ETRS Iterations
 RTBSE|            5013     0.33954109E-007     0.10000000E+002                6
 RTBSE| Simulation step         Convergence     Electron number  ETRS Iterations
 RTBSE|            5014     0.26990919E-007     0.10000000E+002                6
 RTBSE| Simulation step         Convergence     Electron number  ETRS Iterations
 RTBSE|            5015     0.42629265E-007     0.10000000E+002                6
 RTBSE| Simulation step         Convergence     Electron number  ETRS Iterations
 RTBSE|            5016     0.59160820E-007     0.10000000E+002                6
 RTBSE| Simulation step         Convergence     Electron number  ETRS Iterations
 RTBSE|            5017     0.74344691E-007     0.10000000E+002                6
 RTBSE| Simulation step         Convergence     Electron number  ETRS Iterations
 RTBSE|            5018     0.86977757E-007     0.10000000E+002                6
 RTBSE| Simulation step         Convergence     Electron number  ETRS Iterations
 RTBSE|            5019     0.96190062E-007     0.10000000E+002                6
 RTBSE| Simulation step         Convergence     Electron number  ETRS Iterations
 RTBSE|            5020     0.17029325E-007     0.10000000E+002                7
 RTBSE| Simulation step         Convergence     Electron number  ETRS Iterations
 RTBSE|            5021     0.17512985E-007     0.10000000E+002                7
 RTBSE| Simulation step         Convergence     Electron number  ETRS Iterations
 RTBSE|            5022     0.17339568E-007     0.10000000E+002                7
 RTBSE| Simulation step         Convergence     Electron number  ETRS Iterations
 RTBSE|            5023     0.95006407E-007     0.10000000E+002                6
 RTBSE| Simulation step         Convergence     Electron number  ETRS Iterations
 RTBSE|            5024     0.90036041E-007     0.10000000E+002                6
 RTBSE| Simulation step         Convergence     Electron number  ETRS Iterations
 RTBSE|            5025     0.84616308E-007     0.10000000E+002                6
 RTBSE| Simulation step         Convergence     Electron number  ETRS Iterations
 RTBSE|            5026     0.78302128E-007     0.10000000E+002                6
 RTBSE| Simulation step         Convergence     Electron number  ETRS Iterations
 RTBSE|            5027     0.72224861E-007     0.10000000E+002                6
 RTBSE| Simulation step         Convergence     Electron number  ETRS Iterations
 RTBSE|            5028     0.67907535E-007     0.10000000E+002                6
 RTBSE| Simulation step         Convergence     Electron number  ETRS Iterations
 RTBSE|            5029     0.65853823E-007     0.10000000E+002                6
 RTBSE| Simulation step         Convergence     Electron number  ETRS Iterations
 RTBSE|            5030     0.65772832E-007     0.10000000E+002                6
 RTBSE| Simulation step         Convergence     Electron number  ETRS Iterations
 RTBSE|            5031     0.67489543E-007     0.10000000E+002                6
 RTBSE| Simulation step         Convergence     Electron number  ETRS Iterations
 RTBSE|            5032     0.70474580E-007     0.10000000E+002                6
 RTBSE| Simulation step         Convergence     Electron number  ETRS Iterations
 RTBSE|            5033     0.73760111E-007     0.10000000E+002                6
 RTBSE| Simulation step         Convergence     Electron number  ETRS Iterations
 RTBSE|            5034     0.76108473E-007     0.10000000E+002                6
 RTBSE| Simulation step         Convergence     Electron number  ETRS Iterations
 RTBSE|            5035     0.76092638E-007     0.10000000E+002                6
 RTBSE| Simulation step         Convergence     Electron number  ETRS Iterations
 RTBSE|            5036     0.72320270E-007     0.10000000E+002                6
 RTBSE| Simulation step         Convergence     Electron number  ETRS Iterations
 RTBSE|            5037     0.63652912E-007     0.10000000E+002                6
 RTBSE| Simulation step         Convergence     Electron number  ETRS Iterations
 RTBSE|            5038     0.49488459E-007     0.10000000E+002                6
 RTBSE| Simulation step         Convergence     Electron number  ETRS Iterations
 RTBSE|            5039     0.31501336E-007     0.10000000E+002                6
 RTBSE| Simulation step         Convergence     Electron number  ETRS Iterations
 RTBSE|            5040     0.51803595E-007     0.10000000E+002                6
 RTBSE| Simulation step         Convergence     Electron number  ETRS Iterations
 RTBSE|            5041     0.75863653E-007     0.10000000E+002                6
 RTBSE| Simulation step         Convergence     Electron number  ETRS Iterations
 RTBSE|            5042     0.99906375E-007     0.10000000E+002                6
 RTBSE| Simulation step         Convergence     Electron number  ETRS Iterations
 RTBSE|            5043     0.21868457E-007     0.10000000E+002                7
 RTBSE| Simulation step         Convergence     Electron number  ETRS Iterations
 RTBSE|            5044     0.25275040E-007     0.10000000E+002                7
 RTBSE| Simulation step         Convergence     Electron number  ETRS Iterations
 RTBSE|            5045     0.27541222E-007     0.10000000E+002                7
 RTBSE| Simulation step         Convergence     Electron number  ETRS Iterations
 RTBSE|            5046     0.28557394E-007     0.10000000E+002                7
 RTBSE| Simulation step         Convergence     Electron number  ETRS Iterations
 RTBSE|            5047     0.28405776E-007     0.10000000E+002                7
 RTBSE| Simulation step         Convergence     Electron number  ETRS Iterations
 RTBSE|            5048     0.27251905E-007     0.10000000E+002                7
 RTBSE| Simulation step         Convergence     Electron number  ETRS Iterations
 RTBSE|            5049     0.25391467E-007     0.10000000E+002                7
 RTBSE| Simulation step         Convergence     Electron number  ETRS Iterations
 RTBSE|            5050     0.23118906E-007     0.10000000E+002                7
 RTBSE| Simulation step         Convergence     Electron number  ETRS Iterations
 RTBSE|            5051     0.20769843E-007     0.10000000E+002                7
 RTBSE| Simulation step         Convergence     Electron number  ETRS Iterations
 RTBSE|            5052     0.18602832E-007     0.10000000E+002                7
 RTBSE| Simulation step         Convergence     Electron number  ETRS Iterations
 RTBSE|            5053     0.16788633E-007     0.10000000E+002                7
 RTBSE| Simulation step         Convergence     Electron number  ETRS Iterations
 RTBSE|            5054     0.95021514E-007     0.10000000E+002                6
 RTBSE| Simulation step         Convergence     Electron number  ETRS Iterations
 RTBSE|            5055     0.90373029E-007     0.10000000E+002                6
 RTBSE| Simulation step         Convergence     Electron number  ETRS Iterations
 RTBSE|            5056     0.87735506E-007     0.10000000E+002                6
 RTBSE| Simulation step         Convergence     Electron number  ETRS Iterations
 RTBSE|            5057     0.86429880E-007     0.10000000E+002                6
 RTBSE| Simulation step         Convergence     Electron number  ETRS Iterations
 RTBSE|            5058     0.85402440E-007     0.10000000E+002                6
 RTBSE| Simulation step         Convergence     Electron number  ETRS Iterations
 RTBSE|            5059     0.83573289E-007     0.10000000E+002                6
 RTBSE| Simulation step         Convergence     Electron number  ETRS Iterations
 RTBSE|            5060     0.79915195E-007     0.10000000E+002                6
 RTBSE| Simulation step         Convergence     Electron number  ETRS Iterations
 RTBSE|            5061     0.73677568E-007     0.10000000E+002                6
 RTBSE| Simulation step         Convergence     Electron number  ETRS Iterations
 RTBSE|            5062     0.64617648E-007     0.10000000E+002                6
 RTBSE| Simulation step         Convergence     Electron number  ETRS Iterations
 RTBSE|            5063     0.52384515E-007     0.10000000E+002                6
 RTBSE| Simulation step         Convergence     Electron number  ETRS Iterations
 RTBSE|            5064     0.37139776E-007     0.10000000E+002                6
 RTBSE| Simulation step         Convergence     Electron number  ETRS Iterations
 RTBSE|            5065     0.26882563E-007     0.10000000E+002                6
 RTBSE| Simulation step         Convergence     Electron number  ETRS Iterations
 RTBSE|            5066     0.43112653E-007     0.10000000E+002                6
 RTBSE| Simulation step         Convergence     Electron number  ETRS Iterations
 RTBSE|            5067     0.60110896E-007     0.10000000E+002                6
 RTBSE| Simulation step         Convergence     Electron number  ETRS Iterations
 RTBSE|            5068     0.75436812E-007     0.10000000E+002                6
 RTBSE| Simulation step         Convergence     Electron number  ETRS Iterations
 RTBSE|            5069     0.87712026E-007     0.10000000E+002                6
 RTBSE| Simulation step         Convergence     Electron number  ETRS Iterations
 RTBSE|            5070     0.96215369E-007     0.10000000E+002                6
 RTBSE| Simulation step         Convergence     Electron number  ETRS Iterations
 RTBSE|            5071     0.16887720E-007     0.10000000E+002                7
 RTBSE| Simulation step         Convergence     Electron number  ETRS Iterations
 RTBSE|            5072     0.17185101E-007     0.10000000E+002                7
 RTBSE| Simulation step         Convergence     Electron number  ETRS Iterations
 RTBSE|            5073     0.97274093E-007     0.10000000E+002                6
 RTBSE| Simulation step         Convergence     Electron number  ETRS Iterations
 RTBSE|            5074     0.90985944E-007     0.10000000E+002                6
 RTBSE| Simulation step         Convergence     Electron number  ETRS Iterations
 RTBSE|            5075     0.85136971E-007     0.10000000E+002                6
 RTBSE| Simulation step         Convergence     Electron number  ETRS Iterations
 RTBSE|            5076     0.79032330E-007     0.10000000E+002                6
 RTBSE| Simulation step         Convergence     Electron number  ETRS Iterations
 RTBSE|            5077     0.72528618E-007     0.10000000E+002                6
 RTBSE| Simulation step         Convergence     Electron number  ETRS Iterations
 RTBSE|            5078     0.66843871E-007     0.10000000E+002                6
 RTBSE| Simulation step         Convergence     Electron number  ETRS Iterations
 RTBSE|            5079     0.63323371E-007     0.10000000E+002                6
 RTBSE| Simulation step         Convergence     Electron number  ETRS Iterations
 RTBSE|            5080     0.62446082E-007     0.10000000E+002                6
 RTBSE| Simulation step         Convergence     Electron number  ETRS Iterations
 RTBSE|            5081     0.63839878E-007     0.10000000E+002                6
 RTBSE| Simulation step         Convergence     Electron number  ETRS Iterations
 RTBSE|            5082     0.67235337E-007     0.10000000E+002                6
 RTBSE| Simulation step         Convergence     Electron number  ETRS Iterations
 RTBSE|            5083     0.71985803E-007     0.10000000E+002                6
 RTBSE| Simulation step         Convergence     Electron number  ETRS Iterations
 RTBSE|            5084     0.76966722E-007     0.10000000E+002                6
 RTBSE| Simulation step         Convergence     Electron number  ETRS Iterations
 RTBSE|            5085     0.80797216E-007     0.10000000E+002                6
 RTBSE| Simulation step         Convergence     Electron number  ETRS Iterations
 RTBSE|            5086     0.81950061E-007     0.10000000E+002                6
 RTBSE| Simulation step         Convergence     Electron number  ETRS Iterations
 RTBSE|            5087     0.78984050E-007     0.10000000E+002                6
 RTBSE| Simulation step         Convergence     Electron number  ETRS Iterations
 RTBSE|            5088     0.70783321E-007     0.10000000E+002                6
 RTBSE| Simulation step         Convergence     Electron number  ETRS Iterations
 RTBSE|            5089     0.56761472E-007     0.10000000E+002                6
 RTBSE| Simulation step         Convergence     Electron number  ETRS Iterations
 RTBSE|            5090     0.37026915E-007     0.10000000E+002                6
 RTBSE| Simulation step         Convergence     Electron number  ETRS Iterations
 RTBSE|            5091     0.46711173E-007     0.10000000E+002                6
 RTBSE| Simulation step         Convergence     Electron number  ETRS Iterations
 RTBSE|            5092     0.70704501E-007     0.10000000E+002                6
 RTBSE| Simulation step         Convergence     Electron number  ETRS Iterations
 RTBSE|            5093     0.95050719E-007     0.10000000E+002                6
 RTBSE| Simulation step         Convergence     Electron number  ETRS Iterations
 RTBSE|            5094     0.21027805E-007     0.10000000E+002                7
 RTBSE| Simulation step         Convergence     Electron number  ETRS Iterations
 RTBSE|            5095     0.24534779E-007     0.10000000E+002                7
 RTBSE| Simulation step         Convergence     Electron number  ETRS Iterations
 RTBSE|            5096     0.26898099E-007     0.10000000E+002                7
 RTBSE| Simulation step         Convergence     Electron number  ETRS Iterations
 RTBSE|            5097     0.28002388E-007     0.10000000E+002                7
 RTBSE| Simulation step         Convergence     Electron number  ETRS Iterations
 RTBSE|            5098     0.27924507E-007     0.10000000E+002                7
 RTBSE| Simulation step         Convergence     Electron number  ETRS Iterations
 RTBSE|            5099     0.26879948E-007     0.10000000E+002                7
 RTBSE| Simulation step         Convergence     Electron number  ETRS Iterations
 RTBSE|            5100     0.25134036E-007     0.10000000E+002                7
 RTBSE| Simulation step         Convergence     Electron number  ETRS Iterations
 RTBSE|            5101     0.23017970E-007     0.10000000E+002                7
 RTBSE| Simulation step         Convergence     Electron number  ETRS Iterations
 RTBSE|            5102     0.20825057E-007     0.10000000E+002                7
 RTBSE| Simulation step         Convergence     Electron number  ETRS Iterations
 RTBSE|            5103     0.18810884E-007     0.10000000E+002                7
 RTBSE| Simulation step         Convergence     Electron number  ETRS Iterations
 RTBSE|            5104     0.17200145E-007     0.10000000E+002                7
 RTBSE| Simulation step         Convergence     Electron number  ETRS Iterations
 RTBSE|            5105     0.96761948E-007     0.10000000E+002                6
 RTBSE| Simulation step         Convergence     Electron number  ETRS Iterations
 RTBSE|            5106     0.93325167E-007     0.10000000E+002                6
 RTBSE| Simulation step         Convergence     Electron number  ETRS Iterations
 RTBSE|            5107     0.91802568E-007     0.10000000E+002                6
 RTBSE| Simulation step         Convergence     Electron number  ETRS Iterations
 RTBSE|            5108     0.91357941E-007     0.10000000E+002                6
 RTBSE| Simulation step         Convergence     Electron number  ETRS Iterations
 RTBSE|            5109     0.90914207E-007     0.10000000E+002                6
 RTBSE| Simulation step         Convergence     Electron number  ETRS Iterations
 RTBSE|            5110     0.89305624E-007     0.10000000E+002                6
 RTBSE| Simulation step         Convergence     Electron number  ETRS Iterations
 RTBSE|            5111     0.85495689E-007     0.10000000E+002                6
 RTBSE| Simulation step         Convergence     Electron number  ETRS Iterations
 RTBSE|            5112     0.78739374E-007     0.10000000E+002                6
 RTBSE| Simulation step         Convergence     Electron number  ETRS Iterations
 RTBSE|            5113     0.68706304E-007     0.10000000E+002                6
 RTBSE| Simulation step         Convergence     Electron number  ETRS Iterations
 RTBSE|            5114     0.55591458E-007     0.10000000E+002                6
 RTBSE| Simulation step         Convergence     Electron number  ETRS Iterations
 RTBSE|            5115     0.39518335E-007     0.10000000E+002                6
 RTBSE| Simulation step         Convergence     Electron number  ETRS Iterations
 RTBSE|            5116     0.26136698E-007     0.10000000E+002                6
 RTBSE| Simulation step         Convergence     Electron number  ETRS Iterations
 RTBSE|            5117     0.42319946E-007     0.10000000E+002                6
 RTBSE| Simulation step         Convergence     Electron number  ETRS Iterations
 RTBSE|            5118     0.59301059E-007     0.10000000E+002                6
 RTBSE| Simulation step         Convergence     Electron number  ETRS Iterations
 RTBSE|            5119     0.74331583E-007     0.10000000E+002                6
 RTBSE| Simulation step         Convergence     Electron number  ETRS Iterations
 RTBSE|            5120     0.86140394E-007     0.10000000E+002                6
 RTBSE| Simulation step         Convergence     Electron number  ETRS Iterations
 RTBSE|            5121     0.93952570E-007     0.10000000E+002                6
 RTBSE| Simulation step         Convergence     Electron number  ETRS Iterations
 RTBSE|            5122     0.97583050E-007     0.10000000E+002                6
 RTBSE| Simulation step         Convergence     Electron number  ETRS Iterations
 RTBSE|            5123     0.97100253E-007     0.10000000E+002                6
 RTBSE| Simulation step         Convergence     Electron number  ETRS Iterations
 RTBSE|            5124     0.93112077E-007     0.10000000E+002                6
 RTBSE| Simulation step         Convergence     Electron number  ETRS Iterations
 RTBSE|            5125     0.86566790E-007     0.10000000E+002                6
 RTBSE| Simulation step         Convergence     Electron number  ETRS Iterations
 RTBSE|            5126     0.79773800E-007     0.10000000E+002                6
 RTBSE| Simulation step         Convergence     Electron number  ETRS Iterations
 RTBSE|            5127     0.73693883E-007     0.10000000E+002                6
 RTBSE| Simulation step         Convergence     Electron number  ETRS Iterations
 RTBSE|            5128     0.67651875E-007     0.10000000E+002                6
 RTBSE| Simulation step         Convergence     Electron number  ETRS Iterations
 RTBSE|            5129     0.62744266E-007     0.10000000E+002                6
 RTBSE| Simulation step         Convergence     Electron number  ETRS Iterations
 RTBSE|            5130     0.60195761E-007     0.10000000E+002                6
 RTBSE| Simulation step         Convergence     Electron number  ETRS Iterations
 RTBSE|            5131     0.60574140E-007     0.10000000E+002                6
 RTBSE| Simulation step         Convergence     Electron number  ETRS Iterations
 RTBSE|            5132     0.63435764E-007     0.10000000E+002                6
 RTBSE| Simulation step         Convergence     Electron number  ETRS Iterations
 RTBSE|            5133     0.68401118E-007     0.10000000E+002                6
 RTBSE| Simulation step         Convergence     Electron number  ETRS Iterations
 RTBSE|            5134     0.74661541E-007     0.10000000E+002                6
 RTBSE| Simulation step         Convergence     Electron number  ETRS Iterations
 RTBSE|            5135     0.81036023E-007     0.10000000E+002                6
 RTBSE| Simulation step         Convergence     Electron number  ETRS Iterations
 RTBSE|            5136     0.86049017E-007     0.10000000E+002                6
 RTBSE| Simulation step         Convergence     Electron number  ETRS Iterations
 RTBSE|            5137     0.88161335E-007     0.10000000E+002                6
 RTBSE| Simulation step         Convergence     Electron number  ETRS Iterations
 RTBSE|            5138     0.85892407E-007     0.10000000E+002                6
 RTBSE| Simulation step         Convergence     Electron number  ETRS Iterations
 RTBSE|            5139     0.78085564E-007     0.10000000E+002                6
 RTBSE| Simulation step         Convergence     Electron number  ETRS Iterations
 RTBSE|            5140     0.64108843E-007     0.10000000E+002                6
 RTBSE| Simulation step         Convergence     Electron number  ETRS Iterations
 RTBSE|            5141     0.44117889E-007     0.10000000E+002                6
 RTBSE| Simulation step         Convergence     Electron number  ETRS Iterations
 RTBSE|            5142     0.42695271E-007     0.10000000E+002                6
 RTBSE| Simulation step         Convergence     Electron number  ETRS Iterations
 RTBSE|            5143     0.66811228E-007     0.10000000E+002                6
 RTBSE| Simulation step         Convergence     Electron number  ETRS Iterations
 RTBSE|            5144     0.91787181E-007     0.10000000E+002                6
 RTBSE| Simulation step         Convergence     Electron number  ETRS Iterations
 RTBSE|            5145     0.20564494E-007     0.10000000E+002                7
 RTBSE| Simulation step         Convergence     Electron number  ETRS Iterations
 RTBSE|            5146     0.24236842E-007     0.10000000E+002                7
 RTBSE| Simulation step         Convergence     Electron number  ETRS Iterations
 RTBSE|            5147     0.26701458E-007     0.10000000E+002                7
 RTBSE| Simulation step         Convergence     Electron number  ETRS Iterations
 RTBSE|            5148     0.27862866E-007     0.10000000E+002                7
 RTBSE| Simulation step         Convergence     Electron number  ETRS Iterations
 RTBSE|            5149     0.27812179E-007     0.10000000E+002                7
 RTBSE| Simulation step         Convergence     Electron number  ETRS Iterations
 RTBSE|            5150     0.26742624E-007     0.10000000E+002                7
 RTBSE| Simulation step         Convergence     Electron number  ETRS Iterations
 RTBSE|            5151     0.24974483E-007     0.10000000E+002                7
 RTBSE| Simulation step         Convergence     Electron number  ETRS Iterations
 RTBSE|            5152     0.22832839E-007     0.10000000E+002                7
 RTBSE| Simulation step         Convergence     Electron number  ETRS Iterations
 RTBSE|            5153     0.20640846E-007     0.10000000E+002                7
 RTBSE| Simulation step         Convergence     Electron number  ETRS Iterations
 RTBSE|            5154     0.18702580E-007     0.10000000E+002                7
 RTBSE| Simulation step         Convergence     Electron number  ETRS Iterations
 RTBSE|            5155     0.17182640E-007     0.10000000E+002                7
 RTBSE| Simulation step         Convergence     Electron number  ETRS Iterations
 RTBSE|            5156     0.96197323E-007     0.10000000E+002                6
 RTBSE| Simulation step         Convergence     Electron number  ETRS Iterations
 RTBSE|            5157     0.93460172E-007     0.10000000E+002                6
 RTBSE| Simulation step         Convergence     Electron number  ETRS Iterations
 RTBSE|            5158     0.92732771E-007     0.10000000E+002                6
 RTBSE| Simulation step         Convergence     Electron number  ETRS Iterations
 RTBSE|            5159     0.93095748E-007     0.10000000E+002                6
 RTBSE| Simulation step         Convergence     Electron number  ETRS Iterations
 RTBSE|            5160     0.93330139E-007     0.10000000E+002                6
 RTBSE| Simulation step         Convergence     Electron number  ETRS Iterations
 RTBSE|            5161     0.92186837E-007     0.10000000E+002                6
 RTBSE| Simulation step         Convergence     Electron number  ETRS Iterations
 RTBSE|            5162     0.88617653E-007     0.10000000E+002                6
 RTBSE| Simulation step         Convergence     Electron number  ETRS Iterations
 RTBSE|            5163     0.81933287E-007     0.10000000E+002                6
 RTBSE| Simulation step         Convergence     Electron number  ETRS Iterations
 RTBSE|            5164     0.71905312E-007     0.10000000E+002                6
 RTBSE| Simulation step         Convergence     Electron number  ETRS Iterations
 RTBSE|            5165     0.58623893E-007     0.10000000E+002                6
 RTBSE| Simulation step         Convergence     Electron number  ETRS Iterations
 RTBSE|            5166     0.42567197E-007     0.10000000E+002                6
 RTBSE| Simulation step         Convergence     Electron number  ETRS Iterations
 RTBSE|            5167     0.24469090E-007     0.10000000E+002                6
 RTBSE| Simulation step         Convergence     Electron number  ETRS Iterations
 RTBSE|            5168     0.39338261E-007     0.10000000E+002                6
 RTBSE| Simulation step         Convergence     Electron number  ETRS Iterations
 RTBSE|            5169     0.56137818E-007     0.10000000E+002                6
 RTBSE| Simulation step         Convergence     Electron number  ETRS Iterations
 RTBSE|            5170     0.71069751E-007     0.10000000E+002                6
 RTBSE| Simulation step         Convergence     Electron number  ETRS Iterations
 RTBSE|            5171     0.82739200E-007     0.10000000E+002                6
 RTBSE| Simulation step         Convergence     Electron number  ETRS Iterations
 RTBSE|            5172     0.90453892E-007     0.10000000E+002                6
 RTBSE| Simulation step         Convergence     Electron number  ETRS Iterations
 RTBSE|            5173     0.93875269E-007     0.10000000E+002                6
 RTBSE| Simulation step         Convergence     Electron number  ETRS Iterations
 RTBSE|            5174     0.93288017E-007     0.10000000E+002                6
 RTBSE| Simulation step         Convergence     Electron number  ETRS Iterations
 RTBSE|            5175     0.89256673E-007     0.10000000E+002                6
 RTBSE| Simulation step         Convergence     Electron number  ETRS Iterations
 RTBSE|            5176     0.82796233E-007     0.10000000E+002                6
 RTBSE| Simulation step         Convergence     Electron number  ETRS Iterations
 RTBSE|            5177     0.75175049E-007     0.10000000E+002                6
 RTBSE| Simulation step         Convergence     Electron number  ETRS Iterations
 RTBSE|            5178     0.69287371E-007     0.10000000E+002                6
 RTBSE| Simulation step         Convergence     Electron number  ETRS Iterations
 RTBSE|            5179     0.63646732E-007     0.10000000E+002                6
 RTBSE| Simulation step         Convergence     Electron number  ETRS Iterations
 RTBSE|            5180     0.59414272E-007     0.10000000E+002                6
 RTBSE| Simulation step         Convergence     Electron number  ETRS Iterations
 RTBSE|            5181     0.57652115E-007     0.10000000E+002                6
 RTBSE| Simulation step         Convergence     Electron number  ETRS Iterations
 RTBSE|            5182     0.59061910E-007     0.10000000E+002                6
 RTBSE| Simulation step         Convergence     Electron number  ETRS Iterations
 RTBSE|            5183     0.63064063E-007     0.10000000E+002                6
 RTBSE| Simulation step         Convergence     Electron number  ETRS Iterations
 RTBSE|            5184     0.69249728E-007     0.10000000E+002                6
 RTBSE| Simulation step         Convergence     Electron number  ETRS Iterations
 RTBSE|            5185     0.76833088E-007     0.10000000E+002                6
 RTBSE| Simulation step         Convergence     Electron number  ETRS Iterations
 RTBSE|            5186     0.84552319E-007     0.10000000E+002                6
 RTBSE| Simulation step         Convergence     Electron number  ETRS Iterations
 RTBSE|            5187     0.90874541E-007     0.10000000E+002                6
 RTBSE| Simulation step         Convergence     Electron number  ETRS Iterations
 RTBSE|            5188     0.94071018E-007     0.10000000E+002                6
 RTBSE| Simulation step         Convergence     Electron number  ETRS Iterations
 RTBSE|            5189     0.92572973E-007     0.10000000E+002                6
 RTBSE| Simulation step         Convergence     Electron number  ETRS Iterations
 RTBSE|            5190     0.85195368E-007     0.10000000E+002                6
 RTBSE| Simulation step         Convergence     Electron number  ETRS Iterations
 RTBSE|            5191     0.71293996E-007     0.10000000E+002                6
 RTBSE| Simulation step         Convergence     Electron number  ETRS Iterations
 RTBSE|            5192     0.51005400E-007     0.10000000E+002                6
 RTBSE| Simulation step         Convergence     Electron number  ETRS Iterations
 RTBSE|            5193     0.38972004E-007     0.10000000E+002                6
 RTBSE| Simulation step         Convergence     Electron number  ETRS Iterations
 RTBSE|            5194     0.63056471E-007     0.10000000E+002                6
 RTBSE| Simulation step         Convergence     Electron number  ETRS Iterations
 RTBSE|            5195     0.88605371E-007     0.10000000E+002                6
 RTBSE| Simulation step         Convergence     Electron number  ETRS Iterations
 RTBSE|            5196     0.20118033E-007     0.10000000E+002                7
 RTBSE| Simulation step         Convergence     Electron number  ETRS Iterations
 RTBSE|            5197     0.23898256E-007     0.10000000E+002                7
 RTBSE| Simulation step         Convergence     Electron number  ETRS Iterations
 RTBSE|            5198     0.26425139E-007     0.10000000E+002                7
 RTBSE| Simulation step         Convergence     Electron number  ETRS Iterations
 RTBSE|            5199     0.27603553E-007     0.10000000E+002                7
 RTBSE| Simulation step         Convergence     Electron number  ETRS Iterations
 RTBSE|            5200     0.27523577E-007     0.10000000E+002                7
 RTBSE| Simulation step         Convergence     Electron number  ETRS Iterations
 RTBSE|            5201     0.26422005E-007     0.10000000E+002                7
 RTBSE| Simulation step         Convergence     Electron number  ETRS Iterations
 RTBSE|            5202     0.24608032E-007     0.10000000E+002                7
 RTBSE| Simulation step         Convergence     Electron number  ETRS Iterations
 RTBSE|            5203     0.22434668E-007     0.10000000E+002                7
 RTBSE| Simulation step         Convergence     Electron number  ETRS Iterations
 RTBSE|            5204     0.20259408E-007     0.10000000E+002                7
 RTBSE| Simulation step         Convergence     Electron number  ETRS Iterations
 RTBSE|            5205     0.18370905E-007     0.10000000E+002                7
 RTBSE| Simulation step         Convergence     Electron number  ETRS Iterations
 RTBSE|            5206     0.98817001E-007     0.10000000E+002                6
 RTBSE| Simulation step         Convergence     Electron number  ETRS Iterations
 RTBSE|            5207     0.94093322E-007     0.10000000E+002                6
 RTBSE| Simulation step         Convergence     Electron number  ETRS Iterations
 RTBSE|            5208     0.91988888E-007     0.10000000E+002                6
 RTBSE| Simulation step         Convergence     Electron number  ETRS Iterations
 RTBSE|            5209     0.92063633E-007     0.10000000E+002                6
 RTBSE| Simulation step         Convergence     Electron number  ETRS Iterations
 RTBSE|            5210     0.93304003E-007     0.10000000E+002                6
 RTBSE| Simulation step         Convergence     Electron number  ETRS Iterations
 RTBSE|            5211     0.94456998E-007     0.10000000E+002                6
 RTBSE| Simulation step         Convergence     Electron number  ETRS Iterations
 RTBSE|            5212     0.94260721E-007     0.10000000E+002                6
 RTBSE| Simulation step         Convergence     Electron number  ETRS Iterations
 RTBSE|            5213     0.91629616E-007     0.10000000E+002                6
 RTBSE| Simulation step         Convergence     Electron number  ETRS Iterations
 RTBSE|            5214     0.85832646E-007     0.10000000E+002                6
 RTBSE| Simulation step         Convergence     Electron number  ETRS Iterations
 RTBSE|            5215     0.76478658E-007     0.10000000E+002                6
 RTBSE| Simulation step         Convergence     Electron number  ETRS Iterations
 RTBSE|            5216     0.63666586E-007     0.10000000E+002                6
 RTBSE| Simulation step         Convergence     Electron number  ETRS Iterations
 RTBSE|            5217     0.47849219E-007     0.10000000E+002                6
 RTBSE| Simulation step         Convergence     Electron number  ETRS Iterations
 RTBSE|            5218     0.29832105E-007     0.10000000E+002                6
 RTBSE| Simulation step         Convergence     Electron number  ETRS Iterations
 RTBSE|            5219     0.34832054E-007     0.10000000E+002                6
 RTBSE| Simulation step         Convergence     Electron number  ETRS Iterations
 RTBSE|            5220     0.51591766E-007     0.10000000E+002                6
 RTBSE| Simulation step         Convergence     Electron number  ETRS Iterations
 RTBSE|            5221     0.66843880E-007     0.10000000E+002                6
 RTBSE| Simulation step         Convergence     Electron number  ETRS Iterations
 RTBSE|            5222     0.78897763E-007     0.10000000E+002                6
 RTBSE| Simulation step         Convergence     Electron number  ETRS Iterations
 RTBSE|            5223     0.86909260E-007     0.10000000E+002                6
 RTBSE| Simulation step         Convergence     Electron number  ETRS Iterations
 RTBSE|            5224     0.90653658E-007     0.10000000E+002                6
 RTBSE| Simulation step         Convergence     Electron number  ETRS Iterations
 RTBSE|            5225     0.90282161E-007     0.10000000E+002                6
 RTBSE| Simulation step         Convergence     Electron number  ETRS Iterations
 RTBSE|            5226     0.86496987E-007     0.10000000E+002                6
 RTBSE| Simulation step         Convergence     Electron number  ETRS Iterations
 RTBSE|            5227     0.80309996E-007     0.10000000E+002                6
 RTBSE| Simulation step         Convergence     Electron number  ETRS Iterations
 RTBSE|            5228     0.72968131E-007     0.10000000E+002                6
 RTBSE| Simulation step         Convergence     Electron number  ETRS Iterations
 RTBSE|            5229     0.66156217E-007     0.10000000E+002                6
 RTBSE| Simulation step         Convergence     Electron number  ETRS Iterations
 RTBSE|            5230     0.61009985E-007     0.10000000E+002                6
 RTBSE| Simulation step         Convergence     Electron number  ETRS Iterations
 RTBSE|            5231     0.57453098E-007     0.10000000E+002                6
 RTBSE| Simulation step         Convergence     Electron number  ETRS Iterations
 RTBSE|            5232     0.56343057E-007     0.10000000E+002                6
 RTBSE| Simulation step         Convergence     Electron number  ETRS Iterations
 RTBSE|            5233     0.58642469E-007     0.10000000E+002                6
 RTBSE| Simulation step         Convergence     Electron number  ETRS Iterations
 RTBSE|            5234     0.63719053E-007     0.10000000E+002                6
 RTBSE| Simulation step         Convergence     Electron number  ETRS Iterations
 RTBSE|            5235     0.71098170E-007     0.10000000E+002                6
 RTBSE| Simulation step         Convergence     Electron number  ETRS Iterations
 RTBSE|            5236     0.79887276E-007     0.10000000E+002                6
 RTBSE| Simulation step         Convergence     Electron number  ETRS Iterations
 RTBSE|            5237     0.88703578E-007     0.10000000E+002                6
 RTBSE| Simulation step         Convergence     Electron number  ETRS Iterations
 RTBSE|            5238     0.95924618E-007     0.10000000E+002                6
 RTBSE| Simulation step         Convergence     Electron number  ETRS Iterations
 RTBSE|            5239     0.99766319E-007     0.10000000E+002                6
 RTBSE| Simulation step         Convergence     Electron number  ETRS Iterations
 RTBSE|            5240     0.98626471E-007     0.10000000E+002                6
 RTBSE| Simulation step         Convergence     Electron number  ETRS Iterations
 RTBSE|            5241     0.91257260E-007     0.10000000E+002                6
 RTBSE| Simulation step         Convergence     Electron number  ETRS Iterations
 RTBSE|            5242     0.76993940E-007     0.10000000E+002                6
 RTBSE| Simulation step         Convergence     Electron number  ETRS Iterations
 RTBSE|            5243     0.56057061E-007     0.10000000E+002                6
 RTBSE| Simulation step         Convergence     Electron number  ETRS Iterations
 RTBSE|            5244     0.36601292E-007     0.10000000E+002                6
 RTBSE| Simulation step         Convergence     Electron number  ETRS Iterations
 RTBSE|            5245     0.60538790E-007     0.10000000E+002                6
 RTBSE| Simulation step         Convergence     Electron number  ETRS Iterations
 RTBSE|            5246     0.86370920E-007     0.10000000E+002                6
 RTBSE| Simulation step         Convergence     Electron number  ETRS Iterations
 RTBSE|            5247     0.19804959E-007     0.10000000E+002                7
 RTBSE| Simulation step         Convergence     Electron number  ETRS Iterations
 RTBSE|            5248     0.23619101E-007     0.10000000E+002                7
 RTBSE| Simulation step         Convergence     Electron number  ETRS Iterations
 RTBSE|            5249     0.26138703E-007     0.10000000E+002                7
 RTBSE| Simulation step         Convergence     Electron number  ETRS Iterations
 RTBSE|            5250     0.27266615E-007     0.10000000E+002                7
 RTBSE| Simulation step         Convergence     Electron number  ETRS Iterations
 RTBSE|            5251     0.27129332E-007     0.10000000E+002                7
 RTBSE| Simulation step         Convergence     Electron number  ETRS Iterations
 RTBSE|            5252     0.25936748E-007     0.10000000E+002                7
 RTBSE| Simulation step         Convergence     Electron number  ETRS Iterations
 RTBSE|            5253     0.24062500E-007     0.10000000E+002                7
 RTBSE| Simulation step         Convergence     Electron number  ETRS Iterations
 RTBSE|            5254     0.21836498E-007     0.10000000E+002                7
 RTBSE| Simulation step         Convergence     Electron number  ETRS Iterations
 RTBSE|            5255     0.19667098E-007     0.10000000E+002                7
 RTBSE| Simulation step         Convergence     Electron number  ETRS Iterations
 RTBSE|            5256     0.17803784E-007     0.10000000E+002                7
 RTBSE| Simulation step         Convergence     Electron number  ETRS Iterations
 RTBSE|            5257     0.94766724E-007     0.10000000E+002                6
 RTBSE| Simulation step         Convergence     Electron number  ETRS Iterations
 RTBSE|            5258     0.90570824E-007     0.10000000E+002                6
 RTBSE| Simulation step         Convergence     Electron number  ETRS Iterations
 RTBSE|            5259     0.89368739E-007     0.10000000E+002                6
 RTBSE| Simulation step         Convergence     Electron number  ETRS Iterations
 RTBSE|            5260     0.90668915E-007     0.10000000E+002                6
 RTBSE| Simulation step         Convergence     Electron number  ETRS Iterations
 RTBSE|            5261     0.93470497E-007     0.10000000E+002                6
 RTBSE| Simulation step         Convergence     Electron number  ETRS Iterations
 RTBSE|            5262     0.96307689E-007     0.10000000E+002                6
 RTBSE| Simulation step         Convergence     Electron number  ETRS Iterations
 RTBSE|            5263     0.97733745E-007     0.10000000E+002                6
 RTBSE| Simulation step         Convergence     Electron number  ETRS Iterations
 RTBSE|            5264     0.96450057E-007     0.10000000E+002                6
 RTBSE| Simulation step         Convergence     Electron number  ETRS Iterations
 RTBSE|            5265     0.91617484E-007     0.10000000E+002                6
 RTBSE| Simulation step         Convergence     Electron number  ETRS Iterations
 RTBSE|            5266     0.82862864E-007     0.10000000E+002                6
 RTBSE| Simulation step         Convergence     Electron number  ETRS Iterations
 RTBSE|            5267     0.70238449E-007     0.10000000E+002                6
 RTBSE| Simulation step         Convergence     Electron number  ETRS Iterations
 RTBSE|            5268     0.54248542E-007     0.10000000E+002                6
 RTBSE| Simulation step         Convergence     Electron number  ETRS Iterations
 RTBSE|            5269     0.35737012E-007     0.10000000E+002                6
 RTBSE| Simulation step         Convergence     Electron number  ETRS Iterations
 RTBSE|            5270     0.31245179E-007     0.10000000E+002                6
 RTBSE| Simulation step         Convergence     Electron number  ETRS Iterations
 RTBSE|            5271     0.48156030E-007     0.10000000E+002                6
 RTBSE| Simulation step         Convergence     Electron number  ETRS Iterations
 RTBSE|            5272     0.63859147E-007     0.10000000E+002                6
 RTBSE| Simulation step         Convergence     Electron number  ETRS Iterations
 RTBSE|            5273     0.76350716E-007     0.10000000E+002                6
 RTBSE| Simulation step         Convergence     Electron number  ETRS Iterations
 RTBSE|            5274     0.84726708E-007     0.10000000E+002                6
 RTBSE| Simulation step         Convergence     Electron number  ETRS Iterations
 RTBSE|            5275     0.88697129E-007     0.10000000E+002                6
 RTBSE| Simulation step         Convergence     Electron number  ETRS Iterations
 RTBSE|            5276     0.88510363E-007     0.10000000E+002                6
 RTBSE| Simulation step         Convergence     Electron number  ETRS Iterations
 RTBSE|            5277     0.84822837E-007     0.10000000E+002                6
 RTBSE| Simulation step         Convergence     Electron number  ETRS Iterations
 RTBSE|            5278     0.78790160E-007     0.10000000E+002                6
 RTBSE| Simulation step         Convergence     Electron number  ETRS Iterations
 RTBSE|            5279     0.71701899E-007     0.10000000E+002                6
 RTBSE| Simulation step         Convergence     Electron number  ETRS Iterations
 RTBSE|            5280     0.64889393E-007     0.10000000E+002                6
 RTBSE| Simulation step         Convergence     Electron number  ETRS Iterations
 RTBSE|            5281     0.59577661E-007     0.10000000E+002                6
 RTBSE| Simulation step         Convergence     Electron number  ETRS Iterations
 RTBSE|            5282     0.56600792E-007     0.10000000E+002                6
 RTBSE| Simulation step         Convergence     Electron number  ETRS Iterations
 RTBSE|            5283     0.56388591E-007     0.10000000E+002                6
 RTBSE| Simulation step         Convergence     Electron number  ETRS Iterations
 RTBSE|            5284     0.58813438E-007     0.10000000E+002                6
 RTBSE| Simulation step         Convergence     Electron number  ETRS Iterations
 RTBSE|            5285     0.64617507E-007     0.10000000E+002                6
 RTBSE| Simulation step         Convergence     Electron number  ETRS Iterations
 RTBSE|            5286     0.72710355E-007     0.10000000E+002                6
 RTBSE| Simulation step         Convergence     Electron number  ETRS Iterations
 RTBSE|            5287     0.82075580E-007     0.10000000E+002                6
 RTBSE| Simulation step         Convergence     Electron number  ETRS Iterations
 RTBSE|            5288     0.91334333E-007     0.10000000E+002                6
 RTBSE| Simulation step         Convergence     Electron number  ETRS Iterations
 RTBSE|            5289     0.98837675E-007     0.10000000E+002                6
 RTBSE| Simulation step         Convergence     Electron number  ETRS Iterations
 RTBSE|            5290     0.14633064E-007     0.10000000E+002                7
 RTBSE| Simulation step         Convergence     Electron number  ETRS Iterations
 RTBSE|            5291     0.13209224E-007     0.10000000E+002                7
 RTBSE| Simulation step         Convergence     Electron number  ETRS Iterations
 RTBSE|            5292     0.93927195E-007     0.10000000E+002                6
 RTBSE| Simulation step         Convergence     Electron number  ETRS Iterations
 RTBSE|            5293     0.79391447E-007     0.10000000E+002                6
 RTBSE| Simulation step         Convergence     Electron number  ETRS Iterations
 RTBSE|            5294     0.58272900E-007     0.10000000E+002                6
 RTBSE| Simulation step         Convergence     Electron number  ETRS Iterations
 RTBSE|            5295     0.34654207E-007     0.10000000E+002                6
 RTBSE| Simulation step         Convergence     Electron number  ETRS Iterations
 RTBSE|            5296     0.57958969E-007     0.10000000E+002                6
 RTBSE| Simulation step         Convergence     Electron number  ETRS Iterations
 RTBSE|            5297     0.83465178E-007     0.10000000E+002                6
 RTBSE| Simulation step         Convergence     Electron number  ETRS Iterations
 RTBSE|            5298     0.19272020E-007     0.10000000E+002                7
 RTBSE| Simulation step         Convergence     Electron number  ETRS Iterations
 RTBSE|            5299     0.23022912E-007     0.10000000E+002                7
 RTBSE| Simulation step         Convergence     Electron number  ETRS Iterations
 RTBSE|            5300     0.25445109E-007     0.10000000E+002                7
 RTBSE| Simulation step         Convergence     Electron number  ETRS Iterations
 RTBSE|            5301     0.26466433E-007     0.10000000E+002                7
 RTBSE| Simulation step         Convergence     Electron number  ETRS Iterations
 RTBSE|            5302     0.26215589E-007     0.10000000E+002                7
 RTBSE| Simulation step         Convergence     Electron number  ETRS Iterations
 RTBSE|            5303     0.24931790E-007     0.10000000E+002                7
 RTBSE| Simulation step         Convergence     Electron number  ETRS Iterations
 RTBSE|            5304     0.22978133E-007     0.10000000E+002                7
 RTBSE| Simulation step         Convergence     Electron number  ETRS Iterations
 RTBSE|            5305     0.20754545E-007     0.10000000E+002                7
 RTBSE| Simulation step         Convergence     Electron number  ETRS Iterations
 RTBSE|            5306     0.18623276E-007     0.10000000E+002                7
 RTBSE| Simulation step         Convergence     Electron number  ETRS Iterations
 RTBSE|            5307     0.94936247E-007     0.10000000E+002                6
 RTBSE| Simulation step         Convergence     Electron number  ETRS Iterations
 RTBSE|            5308     0.88748409E-007     0.10000000E+002                6
 RTBSE| Simulation step         Convergence     Electron number  ETRS Iterations
 RTBSE|            5309     0.85837010E-007     0.10000000E+002                6
 RTBSE| Simulation step         Convergence     Electron number  ETRS Iterations
 RTBSE|            5310     0.86360656E-007     0.10000000E+002                6
 RTBSE| Simulation step         Convergence     Electron number  ETRS Iterations
 RTBSE|            5311     0.89742340E-007     0.10000000E+002                6
 RTBSE| Simulation step         Convergence     Electron number  ETRS Iterations
 RTBSE|            5312     0.94679180E-007     0.10000000E+002                6
 RTBSE| Simulation step         Convergence     Electron number  ETRS Iterations
 RTBSE|            5313     0.99568765E-007     0.10000000E+002                6
 RTBSE| Simulation step         Convergence     Electron number  ETRS Iterations
 RTBSE|            5314     0.16759167E-007     0.10000000E+002                7
 RTBSE| Simulation step         Convergence     Electron number  ETRS Iterations
 RTBSE|            5315     0.15894833E-007     0.10000000E+002                7
 RTBSE| Simulation step         Convergence     Electron number  ETRS Iterations
 RTBSE|            5316     0.98597795E-007     0.10000000E+002                6
 RTBSE| Simulation step         Convergence     Electron number  ETRS Iterations
 RTBSE|            5317     0.90057606E-007     0.10000000E+002                6
 RTBSE| Simulation step         Convergence     Electron number  ETRS Iterations
 RTBSE|            5318     0.77199543E-007     0.10000000E+002                6
 RTBSE| Simulation step         Convergence     Electron number  ETRS Iterations
 RTBSE|            5319     0.60675418E-007     0.10000000E+002                6
 RTBSE| Simulation step         Convergence     Electron number  ETRS Iterations
 RTBSE|            5320     0.41451186E-007     0.10000000E+002                6
 RTBSE| Simulation step         Convergence     Electron number  ETRS Iterations
 RTBSE|            5321     0.28093297E-007     0.10000000E+002                6
 RTBSE| Simulation step         Convergence     Electron number  ETRS Iterations
 RTBSE|            5322     0.44890885E-007     0.10000000E+002                6
 RTBSE| Simulation step         Convergence     Electron number  ETRS Iterations
 RTBSE|            5323     0.61034133E-007     0.10000000E+002                6
 RTBSE| Simulation step         Convergence     Electron number  ETRS Iterations
 RTBSE|            5324     0.73950275E-007     0.10000000E+002                6
 RTBSE| Simulation step         Convergence     Electron number  ETRS Iterations
 RTBSE|            5325     0.82682422E-007     0.10000000E+002                6
 RTBSE| Simulation step         Convergence     Electron number  ETRS Iterations
 RTBSE|            5326     0.86915867E-007     0.10000000E+002                6
 RTBSE| Simulation step         Convergence     Electron number  ETRS Iterations
 RTBSE|            5327     0.86859090E-007     0.10000000E+002                6
 RTBSE| Simulation step         Convergence     Electron number  ETRS Iterations
 RTBSE|            5328     0.83358278E-007     0.10000000E+002                6
 RTBSE| Simulation step         Convergence     Electron number  ETRS Iterations
 RTBSE|            5329     0.77537126E-007     0.10000000E+002                6
 RTBSE| Simulation step         Convergence     Electron number  ETRS Iterations
 RTBSE|            5330     0.70729241E-007     0.10000000E+002                6
 RTBSE| Simulation step         Convergence     Electron number  ETRS Iterations
 RTBSE|            5331     0.64287266E-007     0.10000000E+002                6
 RTBSE| Simulation step         Convergence     Electron number  ETRS Iterations
 RTBSE|            5332     0.59352835E-007     0.10000000E+002                6
 RTBSE| Simulation step         Convergence     Electron number  ETRS Iterations
 RTBSE|            5333     0.56822237E-007     0.10000000E+002                6
 RTBSE| Simulation step         Convergence     Electron number  ETRS Iterations
 RTBSE|            5334     0.57056857E-007     0.10000000E+002                6
 RTBSE| Simulation step         Convergence     Electron number  ETRS Iterations
 RTBSE|            5335     0.59907678E-007     0.10000000E+002                6
 RTBSE| Simulation step         Convergence     Electron number  ETRS Iterations
 RTBSE|            5336     0.64816692E-007     0.10000000E+002                6
 RTBSE| Simulation step         Convergence     Electron number  ETRS Iterations
 RTBSE|            5337     0.73235997E-007     0.10000000E+002                6
 RTBSE| Simulation step         Convergence     Electron number  ETRS Iterations
 RTBSE|            5338     0.82854063E-007     0.10000000E+002                6
 RTBSE| Simulation step         Convergence     Electron number  ETRS Iterations
 RTBSE|            5339     0.92285836E-007     0.10000000E+002                6
 RTBSE| Simulation step         Convergence     Electron number  ETRS Iterations
 RTBSE|            5340     0.99896575E-007     0.10000000E+002                6
 RTBSE| Simulation step         Convergence     Electron number  ETRS Iterations
 RTBSE|            5341     0.15021609E-007     0.10000000E+002                7
 RTBSE| Simulation step         Convergence     Electron number  ETRS Iterations
 RTBSE|            5342     0.13624709E-007     0.10000000E+002                7
 RTBSE| Simulation step         Convergence     Electron number  ETRS Iterations
 RTBSE|            5343     0.95464349E-007     0.10000000E+002                6
 RTBSE| Simulation step         Convergence     Electron number  ETRS Iterations
 RTBSE|            5344     0.81212012E-007     0.10000000E+002                6
 RTBSE| Simulation step         Convergence     Electron number  ETRS Iterations
 RTBSE|            5345     0.60400507E-007     0.10000000E+002                6
 RTBSE| Simulation step         Convergence     Electron number  ETRS Iterations
 RTBSE|            5346     0.34174919E-007     0.10000000E+002                6
 RTBSE| Simulation step         Convergence     Electron number  ETRS Iterations
 RTBSE|            5347     0.54071213E-007     0.10000000E+002                6
 RTBSE| Simulation step         Convergence     Electron number  ETRS Iterations
 RTBSE|            5348     0.78825946E-007     0.10000000E+002                6
 RTBSE| Simulation step         Convergence     Electron number  ETRS Iterations
 RTBSE|            5349     0.18331839E-007     0.10000000E+002                7
 RTBSE| Simulation step         Convergence     Electron number  ETRS Iterations
 RTBSE|            5350     0.21974275E-007     0.10000000E+002                7
 RTBSE| Simulation step         Convergence     Electron number  ETRS Iterations
 RTBSE|            5351     0.24298863E-007     0.10000000E+002                7
 RTBSE| Simulation step         Convergence     Electron number  ETRS Iterations
 RTBSE|            5352     0.25241825E-007     0.10000000E+002                7
 RTBSE| Simulation step         Convergence     Electron number  ETRS Iterations
 RTBSE|            5353     0.24928035E-007     0.10000000E+002                7
 RTBSE| Simulation step         Convergence     Electron number  ETRS Iterations
 RTBSE|            5354     0.23626676E-007     0.10000000E+002                7
 RTBSE| Simulation step         Convergence     Electron number  ETRS Iterations
 RTBSE|            5355     0.21734942E-007     0.10000000E+002                7
 RTBSE| Simulation step         Convergence     Electron number  ETRS Iterations
 RTBSE|            5356     0.19633557E-007     0.10000000E+002                7
 RTBSE| Simulation step         Convergence     Electron number  ETRS Iterations
 RTBSE|            5357     0.96275323E-007     0.10000000E+002                6
 RTBSE| Simulation step         Convergence     Electron number  ETRS Iterations
 RTBSE|            5358     0.88912797E-007     0.10000000E+002                6
 RTBSE| Simulation step         Convergence     Electron number  ETRS Iterations
 RTBSE|            5359     0.84337225E-007     0.10000000E+002                6
 RTBSE| Simulation step         Convergence     Electron number  ETRS Iterations
 RTBSE|            5360     0.83375941E-007     0.10000000E+002                6
 RTBSE| Simulation step         Convergence     Electron number  ETRS Iterations
 RTBSE|            5361     0.86043574E-007     0.10000000E+002                6
 RTBSE| Simulation step         Convergence     Electron number  ETRS Iterations
 RTBSE|            5362     0.91525055E-007     0.10000000E+002                6
 RTBSE| Simulation step         Convergence     Electron number  ETRS Iterations
 RTBSE|            5363     0.98384356E-007     0.10000000E+002                6
 RTBSE| Simulation step         Convergence     Electron number  ETRS Iterations
 RTBSE|            5364     0.18176376E-007     0.10000000E+002                7
 RTBSE| Simulation step         Convergence     Electron number  ETRS Iterations
 RTBSE|            5365     0.18156787E-007     0.10000000E+002                7
 RTBSE| Simulation step         Convergence     Electron number  ETRS Iterations
 RTBSE|            5366     0.17339828E-007     0.10000000E+002                7
 RTBSE| Simulation step         Convergence     Electron number  ETRS Iterations
 RTBSE|            5367     0.15621936E-007     0.10000000E+002                7
 RTBSE| Simulation step         Convergence     Electron number  ETRS Iterations
 RTBSE|            5368     0.97227045E-007     0.10000000E+002                6
 RTBSE| Simulation step         Convergence     Electron number  ETRS Iterations
 RTBSE|            5369     0.83945272E-007     0.10000000E+002                6
 RTBSE| Simulation step         Convergence     Electron number  ETRS Iterations
 RTBSE|            5370     0.66805396E-007     0.10000000E+002                6
 RTBSE| Simulation step         Convergence     Electron number  ETRS Iterations
 RTBSE|            5371     0.46850049E-007     0.10000000E+002                6
 RTBSE| Simulation step         Convergence     Electron number  ETRS Iterations
 RTBSE|            5372     0.25867667E-007     0.10000000E+002                6
 RTBSE| Simulation step         Convergence     Electron number  ETRS Iterations
 RTBSE|            5373     0.42439116E-007     0.10000000E+002                6
 RTBSE| Simulation step         Convergence     Electron number  ETRS Iterations
 RTBSE|            5374     0.59089456E-007     0.10000000E+002                6
 RTBSE| Simulation step         Convergence     Electron number  ETRS Iterations
 RTBSE|            5375     0.72549369E-007     0.10000000E+002                6

 -------------------------------------------------------------------------------
 -                                                                             -
 -                                DBCSR STATISTICS                             -
 -                                                                             -
 -------------------------------------------------------------------------------
 COUNTER                                    TOTAL       BLAS       SMM       ACC
 flops    13 x    26 x    13                35152     100.0%      0.0%      0.0%     
 flops    13 x    13 x    26               158184     100.0%      0.0%      0.0%     
 flops    67 x    64 x    67               574592     100.0%      0.0%      0.0%     
 flops    67 x    64 x    78               668928     100.0%      0.0%      0.0%     
 flops    78 x    64 x    67               668928     100.0%      0.0%      0.0%     
 flops    67 x    81 x    67               727218     100.0%      0.0%      0.0%     
 flops    78 x    64 x    78               778752     100.0%      0.0%      0.0%     
 flops    78 x    81 x    67               846612     100.0%      0.0%      0.0%     
 flops    67 x    81 x    78               846612     100.0%      0.0%      0.0%     
 flops    78 x    81 x    78               985608     100.0%      0.0%      0.0%     
 flops inhomo. stacks                           0       0.0%      0.0%      0.0%
 flops total                         6.290586E+06     100.0%      0.0%      0.0%
 flops max/rank                      1.902524E+06     100.0%      0.0%      0.0%
 matmuls inhomo. stacks                         0       0.0%      0.0%      0.0%
 matmuls total                                 30     100.0%      0.0%      0.0%
 number of processed stacks                    30     100.0%      0.0%      0.0%
 average stack size                                     1.0       0.0       0.0
 marketing flops                     6.144570E+06
 -------------------------------------------------------------------------------
 # multiplications                              8
 max memory usage/rank             462.647296E+06
 # max total images/rank                        1
 # max 3D layers                                1
 # MPI messages exchanged                      64
 MPI messages size (bytes):
  total size                       412.112000E+03
  min size                           0.000000E+00
  max size                          50.544000E+03
  average size                       6.439250E+03
 MPI breakdown and total messages size (bytes):
             size <=      128                  26                        0
       128 < size <=     8192                  30                    75712
      8192 < size <=    32768                   0                        0
     32768 < size <=   131072                   8                   336400
    131072 < size <=  4194304                   0                        0
   4194304 < size <= 16777216                   0                        0
  16777216 < size                               0                        0
 -------------------------------------------------------------------------------
 -                                                                             -
 -                      DBCSR MESSAGE PASSING PERFORMANCE                      -
 -                                                                             -
 -------------------------------------------------------------------------------
 ROUTINE             CALLS      AVE VOLUME [Bytes]
 MP_Bcast               11                     12.
 MP_Allreduce           87                     16.
 MP_Alltoall       2926020                    622.
 MP_ISend               64                   2166.
 MP_IRecv               64                   1438.
 -------------------------------------------------------------------------------

 -------------------------------------------------------------------------------
 -                                                                             -
 -                                DBM STATISTICS                               -
 -                                                                             -
 -------------------------------------------------------------------------------
    M  x    N  x    K                                          COUNT     PERCENT
    ?  x    ?  x    ?                                        5539968      50.00%
   ??  x  ???  x   ??                                        1846656      16.67%
   ??  x   ??  x  ???                                         923328       8.33%
   ??  x   ??  x >999                                         923328       8.33%
  ???  x   ??  x   ??                                         923328       8.33%
 >999  x   ??  x   ??                                         923328       8.33%
 -------------------------------------------------------------------------------
 Memory consumption                            Number of allocations  Size [MiB]
 Host                                                             15           1
 -------------------------------------------------------------------------------

 -------------------------------------------------------------------------------
 -                                                                             -
 -                                GRID STATISTICS                              -
 -                                                                             -
 -------------------------------------------------------------------------------
 LP    KERNEL             BACKEND                              COUNT     PERCENT
 4     collocate ortho    CPU                                    648      49.77%
 4     integrate ortho    CPU                                    648      49.77%
 0     collocate general  CPU                                      4       0.31%
 0     integrate general  CPU                                      2       0.15%
 -------------------------------------------------------------------------------

 MEMORY| Estimated peak process memory [MiB]                                 442

 -------------------------------------------------------------------------------
 ----                             MULTIGRID INFO                            ----
 -------------------------------------------------------------------------------
 count for grid        1:          28164          cutoff [a.u.]          200.00
 count for grid        2:          16366          cutoff [a.u.]           66.67
 count for grid        3:          13240          cutoff [a.u.]           22.22
 count for grid        4:           1554          cutoff [a.u.]            7.41
 total gridlevel count  :          59324

 -------------------------------------------------------------------------------
 -                                                                             -
 -                         MESSAGE PASSING PERFORMANCE                         -
 -                                                                             -
 -------------------------------------------------------------------------------

 ROUTINE             CALLS      AVE VOLUME [Bytes]
 MP_Group          4501260
 MP_Bcast          2308780                    464.
 MP_Allreduce      5078112                     25.
 MP_Sync           3462498
 MP_Alltoall       2539289                   1169.
 MP_SendRecv            78                1454279.
 MP_ISendRecv           75                1352451.
 MP_Wait           4385898
 MP_comm_split     2308340
 MP_ISend          5539989                  25340.
 MP_IRecv          5539989                  25197.
 -------------------------------------------------------------------------------


 -------------------------------------------------------------------------------
 -                                                                             -
 -                           R E F E R E N C E S                               -
 -                                                                             -
 -------------------------------------------------------------------------------
 
 CP2K version 2025.1 (Development Version), the CP2K developers group (2025).
 CP2K is freely available from https://www.cp2k.org/ .
 
 M. Graml, K. Zollner, D. Hernangómez-Pérez, P. E. Faria Junior, J. Wilhelm.
 J. Chem. Theory Comput. 20, 2202-2208 (2024).
 Low-scaling GW algorithm applied to twisted transition-metal dichalcogenide 
 heterobilayers.
 https://doi.org/10.1021/acs.jctc.3c01230

 T. D. Kuehne, M. Iannuzzi, M. Del Ben, V. V. Rybkin, P. Seewald, F. Stein, T. 
 Laino, R. Z. Khaliullin, O. Schuett, F. Schiffmann, D. Golze, J. Wilhelm, S. 
 Chulkov, M. H. Bani-Hashemian, V. Weber, U. Borstnik, M. Taillefumier, A. S. 
 Jakobovits, A. Lazzaro, H. Pabst, T. Mueller, R. Schade, M. Guidon, S. 
 Andermatt, N. Holmberg, G. K. Schenter, A. Hehn, A. Bussy, F. Belleflamme, G. 
 Tabacchi, A. Gloess, M. Lass, I. Bethune, C. J. Mundy, C. Plessl, M. Watkins, 
 J. VandeVondele, M. Krack, J. Hutter.
 J. Chem. Phys. 152, 194103 (2020).
 CP2K: An electronic structure and molecular dynamics software package - 
 Quickstep: Efficient and accurate electronic structure calculations.
 https://doi.org/10.1063/5.0007045

 O. Schuett, P. Messmer, J. Hutter, J. VandeVondele.
 Electronic Structure Calculations on Graphics Processing Units, 173-190 (2016).
 GPU-Accelerated Sparse Matrix-Matrix Multiplication for Linear Scaling Density 
 Functional Theory.
 https://doi.org/10.1002/9781118670712.ch8

 J. Hutter, M. Iannuzzi, F. Schiffmann, J. VandeVondele.
 WIREs Comput Mol Sci. 4, 15-25 (2014).
 CP2K: atomistic simulations of condensed matter systems.
 https://doi.org/10.1002/wcms.1159

 U. Borstnik, J. VandeVondele, V. Weber, J. Hutter.
 Parallel Comput. 40, 47-58 (2014).
 Sparse matrix multiplication: The distributed block-compressed sparse row 
 library.
 https://doi.org/10.1016/j.parco.2014.03.012

 L. Genovese, T. Deutsch, S. Goedecker.
 J. Chem. Phys. 127, 054704 (2007).
 Efficient and accurate three-dimensional Poisson solver for surface problems.
 https://doi.org/10.1063/1.2754685

 J. VandeVondele, J. Hutter.
 J. Chem. Phys. 127, 114105 (2007).
 Gaussian basis sets for accurate calculations on molecular systems in gas and 
 condensed phases.
 https://doi.org/10.1063/1.2770708

 L. Genovese, T. Deutsch, A. Neelov, S. Goedecker, G. Beylkin.
 J. Chem. Phys. 125, 074105 (2006).
 Efficient solution of Poisson's equation with free boundary conditions.
 https://doi.org/10.1063/1.2335442

 J. VandeVondele, M. Krack, F. Mohamed, M. Parrinello, T. Chassaing, J. Hutter.
 Comput. Phys. Commun. 167, 103-128 (2005).
 QUICKSTEP: Fast and accurate density functional calculations using a mixed 
 Gaussian and plane waves approach.
 https://doi.org/10.1016/j.cpc.2004.12.014

 M. Krack.
 Theor. Chem. Acc. 114, 145-152 (2005).
 Pseudopotentials for H to Kr optimized for gradient-corrected 
 exchange-correlation functionals.
 https://doi.org/10.1007/s00214-005-0655-y

 M. Frigo, S. G. Johnson.
 Proc. IEEE 93, 216-231 (2005).
 The design and implementation of FFTW3.
 https://doi.org/10.1109/JPROC.2004.840301

 C. Hartwigsen, S. Goedecker, J. Hutter.
 Phys. Rev. B 58, 3641-3662 (1998).
 Relativistic separable dual-space Gaussian pseudopotentials from H to Rn.
 https://doi.org/10.1103/PhysRevB.58.3641

 G. Lippert, J. Hutter, M. Parrinello.
 Mol. Phys. 92, 477-487 (1997).
 A hybrid Gaussian and plane wave density functional scheme.
 https://doi.org/10.1080/002689797170220

 S. Goedecker, M. Teter, J. Hutter.
 Phys. Rev. B 54, 1703-1710 (1996).
 Separable dual-space Gaussian pseudopotentials.
 https://doi.org/10.1103/PhysRevB.54.1703

 J. P. Perdew, K. Burke, M. Ernzerhof.
 Phys. Rev. Lett. 77, 3865-3868 (1996).
 Generalized gradient approximation made simple.
 https://doi.org/10.1103/PhysRevLett.77.3865


 -------------------------------------------------------------------------------
 -                                                                             -
 -                                T I M I N G                                  -
 -                                                                             -
 -------------------------------------------------------------------------------
 SUBROUTINE                       CALLS  ASD         SELF TIME        TOTAL TIME
                                MAXIMUM       AVERAGE  MAXIMUM  AVERAGE  MAXIMUM
 CP2K                                 1  1.0    0.005    0.007  676.862  676.862
 run_propagation_bse                  1  2.0    1.000    3.253  676.623  676.655
 etrs_scf_loop                     5376  3.0    0.132    0.141  657.595  657.721
 update_effective_ham             38471  4.0    0.670    0.702  641.280  641.581
 get_sigma                       115416  5.0    1.130    1.172  624.191  624.198
 dbt_total                       346249  6.0    1.097    1.163  600.511  600.537
 dbt_contract                    346248  7.0    6.962    7.083  598.147  598.792
 dbt_tas_multiply                692496  9.5    0.614    0.627  434.760  435.415
 dbt_tas_total                   692496 10.5   25.937   26.269  433.170  433.178
 dbt_tas_estimate_result_nze     346248 10.0   19.933   20.869  146.772  146.793
 dbt_remap                       461664  8.0   23.837   23.950  117.262  117.794
 dbt_tas_distribution_new       3116248 11.9   63.796   63.954  109.943  110.244
 dbt_tas_dbm                     692496 11.5    0.552    0.592   91.088   91.107
 reshape_mm_compatible           692496 11.5    5.653    5.672   89.188   89.530
 reshape_mm_small                692496 11.5   32.138   32.271   88.535   88.918
 dbm_multiply                    692496 13.5   87.538   88.781   87.538   88.781
 dbt_tas_create_split           2308330 12.2    1.567    1.628   86.593   86.963
 dbt_tas_create_split_rows_or_c 2308330 13.2    5.275    5.391   85.026   85.395
 change_split                    807912 11.9    2.257    2.274   55.720   55.832
 mp_cart_create                 4655266 12.6   52.166   53.053   54.416   55.305
 dbt_distribution_new_expert     923344  9.5    4.868    4.893   49.965   50.110
 dbt_tas_reshape                1154160 12.0    4.321    4.380   48.159   49.457
 dbt_copy                        461665  8.5    0.720    0.729   45.194   46.758
 dbt_reshape                     346248  9.7   29.222   30.642   38.987   40.408
 dbt_tas_mm_3N                   230832 12.5    0.129    0.133   38.127   39.000
 dbt_tas_replicate               692496 11.5    8.428    8.478   29.990   30.131
 dbt_tas_mm_2                    230832 12.5    0.230    0.245   29.786   29.790
 mp_comm_dup                    1962086 14.6   25.938   26.133   26.950   27.120
 reshape_mm_template             230832 12.5    6.251    6.258   25.568   26.030
 mp_comm_split_direct           2308332 14.2   23.752   23.851   24.357   24.455
 dbt_create_new                  461672  9.0    3.200    3.254   22.835   22.874
 dbt_tas_mm_1N                   230832 12.5    0.127    0.131   21.006   21.298
 copy_dbcsr_to_fm                154002  6.0    1.060    1.080   20.901   21.053
 dbt_tas_reshape_buffer_obtain  1154160 13.0   11.807   12.330   17.149   17.988
 dbt_tas_communicate_buffer     1846656 13.8    5.062    5.179   17.646   17.893
 dbcsr_complete_redistribute     307997  6.6    4.575    4.624   16.945   17.143
 mp_comm_free                   9233763 11.2   15.122   15.422   15.122   15.422
 mp_sync                        3462498 10.6   10.554   14.651   10.554   14.651
 dbt_tas_reserve_blocks_index   2769989 13.1    2.803    2.861   13.645   14.348
 -------------------------------------------------------------------------------

 The number of warnings for this run is : 4
 
 -------------------------------------------------------------------------------
  **** **** ******  **  PROGRAM ENDED AT                 2025-02-07 18:05:03.580
 ***** ** ***  *** **   PROGRAM RAN ON                              pc1022400703
 **    ****   ******    PROGRAM RAN BY                                  mas05075
 ***** **    ** ** **   PROGRAM PROCESS ID                                 40894
  **** **  *******  **  PROGRAM STOPPED IN /home/mas05075/Science/RTBSE/test_2nd
                                           _harmonic/CO/2/e_x/Results_1e12
